78
frame=0 E_kcal=-1512.4932
C     52.249950    36.560039    48.302011
C     53.692913    36.700458    47.795392
C     53.978738    38.002520    47.028123
C     52.720903    38.847454    46.751789
C     52.909113    39.727381    45.499400
C     51.171254    37.076750    47.331333
O     50.812175    35.968235    46.547124
O     52.101998    37.244897    49.523771
O     53.980987    35.681362    46.856286
O     54.799249    38.800895    47.846732
O     51.613584    38.039700    46.393962
O     53.579676    38.992113    44.513978
H     52.026168    35.495400    48.572877
H     54.404158    36.591430    48.653681
H     54.539278    37.743496    46.089312
H     52.443098    39.452228    47.643530
H     51.932296    39.973087    45.033243
H     53.454588    40.656017    45.745343
H     50.281051    37.509963    47.837068
H     50.008709    36.156450    46.002975
H     52.520965    38.140219    49.484266
H     53.780296    34.785872    47.218568
H     55.653939    39.028209    47.343001
H     54.568106    39.008731    44.659684
P     54.339543    38.868419    41.200625
O     52.923854    39.006760    40.798495
O     55.146972    40.060632    41.719757
O     54.689740    37.607832    42.016052
P     55.990976    38.464855    38.567459
O     57.408331    38.413039    39.079005
O     55.664875    37.553999    37.436589
O     54.821399    38.414550    39.661560
P     55.291660    41.364443    37.602993
O     55.124346    42.485841    38.605138
O     56.289223    41.622776    36.498631
O     55.391447    40.001308    38.452752
O     53.763171    41.336227    36.985496
C     53.341000    40.484000    35.919000
H     53.617969    40.901606    34.943830
H     53.660764    39.435398    35.983725
C     58.586000    39.405000    44.728000
H     58.572650    40.202520    43.966732
H     58.982531    38.491608    44.257031
C     57.228787    39.173255    45.345863
O     56.256989    38.762747    44.630797
O     57.070905    39.365350    46.561089
C     49.276000    33.777000    42.633000
H     50.087865    33.089507    42.898295
H     49.353247    33.981069    41.557450
C     49.339308    35.065076    43.454956
H     48.416383    35.656724    43.281205
H     49.320605    34.819849    44.534444
C     50.563160    35.933953    43.120021
H     50.625914    36.075790    42.020285
H     50.398975    36.951300    43.536620
C     51.867715    35.329401    43.648553
H     51.662492    34.566318    44.434134
H     52.427834    34.797015    42.843343
N     52.770869    36.390894    44.242110
H     52.234257    37.054662    44.836037
H     53.463094    35.960056    44.880963
H     53.289037    36.927544    43.514935
C     50.957000    37.559000    39.635000
H     51.612265    37.035538    40.352079
O     51.704161    37.934250    38.485532
H     52.545044    38.370982    38.773390
C     49.847870    36.645530    39.120792
H     49.298053    37.108046    38.292479
H     50.243460    35.692243    38.753536
H     49.121403    36.414908    39.905803
Mg    56.242997    38.689537    42.694195
O     58.002631    38.514218    41.689752
H     58.354789    37.605389    41.812175
H     57.776482    38.527446    40.692812
H     52.247000    40.514000    36.057000
H     59.245000    39.699000    45.553000
H     48.336000    33.234000    42.783000
H     50.547000    38.485000    40.081000
78
frame=1 E_kcal=-1512.4932
C     52.249950    36.560039    48.302011
C     53.692913    36.700458    47.795392
C     53.978738    38.002520    47.028123
C     52.720903    38.847454    46.751789
C     52.909113    39.727381    45.499400
C     51.171254    37.076750    47.331333
O     50.812175    35.968235    46.547124
O     52.101998    37.244897    49.523771
O     53.980987    35.681362    46.856286
O     54.799249    38.800895    47.846732
O     51.613584    38.039700    46.393962
O     53.579676    38.992113    44.513978
H     52.026168    35.495400    48.572877
H     54.404158    36.591430    48.653681
H     54.539278    37.743496    46.089312
H     52.443098    39.452228    47.643530
H     51.932296    39.973087    45.033243
H     53.454588    40.656017    45.745343
H     50.281051    37.509963    47.837068
H     50.008709    36.156450    46.002975
H     52.520965    38.140219    49.484266
H     53.780296    34.785872    47.218568
H     55.653939    39.028209    47.343001
H     54.568106    39.008731    44.659684
P     54.339543    38.868419    41.200625
O     52.923854    39.006760    40.798495
O     55.146972    40.060632    41.719757
O     54.689740    37.607832    42.016052
P     55.990976    38.464855    38.567459
O     57.408331    38.413039    39.079005
O     55.664875    37.553999    37.436589
O     54.821399    38.414550    39.661560
P     55.291660    41.364443    37.602993
O     55.124346    42.485841    38.605138
O     56.289223    41.622776    36.498631
O     55.391447    40.001308    38.452752
O     53.763171    41.336227    36.985496
C     53.341000    40.484000    35.919000
H     53.617969    40.901606    34.943830
H     53.660764    39.435398    35.983725
C     58.586000    39.405000    44.728000
H     58.572650    40.202520    43.966732
H     58.982531    38.491608    44.257031
C     57.228787    39.173255    45.345863
O     56.256989    38.762747    44.630797
O     57.070905    39.365350    46.561089
C     49.276000    33.777000    42.633000
H     50.087865    33.089507    42.898295
H     49.353247    33.981069    41.557450
C     49.339308    35.065076    43.454956
H     48.416383    35.656724    43.281205
H     49.320605    34.819849    44.534444
C     50.563160    35.933953    43.120021
H     50.625914    36.075790    42.020285
H     50.398975    36.951300    43.536620
C     51.867715    35.329401    43.648553
H     51.662492    34.566318    44.434134
H     52.427834    34.797015    42.843343
N     52.770869    36.390894    44.242110
H     52.234257    37.054662    44.836037
H     53.463094    35.960056    44.880963
H     53.289037    36.927544    43.514935
C     50.957000    37.559000    39.635000
H     51.612265    37.035538    40.352079
O     51.704161    37.934250    38.485532
H     52.545044    38.370982    38.773390
C     49.847870    36.645530    39.120792
H     49.298053    37.108046    38.292479
H     50.243460    35.692243    38.753536
H     49.121403    36.414908    39.905803
Mg    56.242997    38.689537    42.694195
O     58.002631    38.514218    41.689752
H     58.354789    37.605389    41.812175
H     57.776482    38.527446    40.692812
H     52.247000    40.514000    36.057000
H     59.245000    39.699000    45.553000
H     48.336000    33.234000    42.783000
H     50.547000    38.485000    40.081000
78
frame=2 E_kcal=-1512.4932
C     52.249950    36.560039    48.302011
C     53.692913    36.700458    47.795392
C     53.978738    38.002520    47.028123
C     52.720903    38.847454    46.751789
C     52.909113    39.727381    45.499400
C     51.171254    37.076750    47.331333
O     50.812175    35.968235    46.547124
O     52.101998    37.244897    49.523771
O     53.980987    35.681362    46.856286
O     54.799249    38.800895    47.846732
O     51.613584    38.039700    46.393962
O     53.579676    38.992113    44.513978
H     52.026168    35.495400    48.572877
H     54.404158    36.591430    48.653681
H     54.539278    37.743496    46.089312
H     52.443098    39.452228    47.643530
H     51.932296    39.973087    45.033243
H     53.454588    40.656017    45.745343
H     50.281051    37.509963    47.837068
H     50.008709    36.156450    46.002975
H     52.520965    38.140219    49.484266
H     53.780296    34.785872    47.218568
H     55.653939    39.028209    47.343001
H     54.568106    39.008731    44.659684
P     54.339543    38.868419    41.200625
O     52.923854    39.006760    40.798495
O     55.146972    40.060632    41.719757
O     54.689740    37.607832    42.016052
P     55.990976    38.464855    38.567459
O     57.408331    38.413039    39.079005
O     55.664875    37.553999    37.436589
O     54.821399    38.414550    39.661560
P     55.291660    41.364443    37.602993
O     55.124346    42.485841    38.605138
O     56.289223    41.622776    36.498631
O     55.391447    40.001308    38.452752
O     53.763171    41.336227    36.985496
C     53.341000    40.484000    35.919000
H     53.617969    40.901606    34.943830
H     53.660764    39.435398    35.983725
C     58.586000    39.405000    44.728000
H     58.572650    40.202520    43.966732
H     58.982531    38.491608    44.257031
C     57.228787    39.173255    45.345863
O     56.256989    38.762747    44.630797
O     57.070905    39.365350    46.561089
C     49.276000    33.777000    42.633000
H     50.087865    33.089507    42.898295
H     49.353247    33.981069    41.557450
C     49.339308    35.065076    43.454956
H     48.416383    35.656724    43.281205
H     49.320605    34.819849    44.534444
C     50.563160    35.933953    43.120021
H     50.625914    36.075790    42.020285
H     50.398975    36.951300    43.536620
C     51.867715    35.329401    43.648553
H     51.662492    34.566318    44.434134
H     52.427834    34.797015    42.843343
N     52.770869    36.390894    44.242110
H     52.234257    37.054662    44.836037
H     53.463094    35.960056    44.880963
H     53.289037    36.927544    43.514935
C     50.957000    37.559000    39.635000
H     51.612265    37.035538    40.352079
O     51.704161    37.934250    38.485532
H     52.545044    38.370982    38.773390
C     49.847870    36.645530    39.120792
H     49.298053    37.108046    38.292479
H     50.243460    35.692243    38.753536
H     49.121403    36.414908    39.905803
Mg    56.242997    38.689537    42.694195
O     58.002631    38.514218    41.689752
H     58.354789    37.605389    41.812175
H     57.776482    38.527446    40.692812
H     52.247000    40.514000    36.057000
H     59.245000    39.699000    45.553000
H     48.336000    33.234000    42.783000
H     50.547000    38.485000    40.081000
78
frame=3 E_kcal=-1512.3986
C     52.248377    36.565161    48.304057
C     53.691158    36.707850    47.797567
C     53.974911    38.008013    47.026458
C     52.715479    38.849878    46.748506
C     52.902309    39.727361    45.494195
C     51.168460    37.078466    47.332939
O     50.808186    35.967567    46.552818
O     52.098702    37.251108    49.524973
O     53.981392    35.686869    46.861234
O     54.795083    38.809451    47.842293
O     51.610198    38.038468    46.392069
O     53.578528    38.993045    44.512072
H     52.027343    35.500292    48.576287
H     54.402481    36.603819    48.656343
H     54.535169    37.747047    46.087906
H     52.435680    39.455703    47.638823
H     51.925329    39.966308    45.024803
H     53.441935    40.659681    45.739160
H     50.278896    37.513418    47.838317
H     50.004200    36.154228    46.008845
H     52.512850    38.148559    49.483619
H     53.787044    34.791503    47.227134
H     55.650276    39.034993    47.338211
H     54.566397    39.011399    44.660861
P     54.336265    38.872272    41.208443
O     52.921954    39.018635    40.806036
O     55.148728    40.061344    41.728387
O     54.680235    37.608371    42.020864
P     55.985516    38.467277    38.572286
O     57.405039    38.414530    39.077633
O     55.656364    37.557133    37.442514
O     54.819319    38.418621    39.670070
P     55.286476    41.367750    37.608307
O     55.113503    42.489355    38.609459
O     56.287686    41.627957    36.507531
O     55.387861    40.005651    38.459676
O     53.761077    41.341128    36.982675
C     53.341000    40.484000    35.919000
H     53.616538    40.898946    34.942275
H     53.663713    39.436650    35.987775
C     58.586000    39.405000    44.728000
H     58.572198    40.202114    43.966320
H     58.982050    38.491457    44.256637
C     57.228563    39.174359    45.345235
O     56.256024    38.765495    44.630443
O     57.070414    39.366672    46.560661
C     49.276000    33.777000    42.633000
H     50.087694    33.089057    42.897660
H     49.352971    33.981688    41.557467
C     49.340383    35.064650    43.455478
H     48.417708    35.656826    43.282580
H     49.321981    34.818857    44.534761
C     50.564451    35.933234    43.120740
H     50.626711    36.075859    42.021104
H     50.400801    36.950362    43.538153
C     51.869268    35.328088    43.647988
H     51.664678    34.561404    44.430343
H     52.430957    34.799831    42.841120
N     52.770434    36.388637    44.246234
H     52.232582    37.047363    44.844608
H     53.464897    35.956108    44.881226
H     53.286104    36.931471    43.521722
C     50.957000    37.559000    39.635000
H     51.607908    37.031161    40.352618
O     51.710176    37.938529    38.490634
H     52.547370    38.378427    38.784772
C     49.847784    36.651506    39.110689
H     49.305911    37.119381    38.279742
H     50.241146    35.696817    38.744690
H     49.114727    36.422671    39.889877
Mg    56.240166    38.682310    42.694648
O     57.999459    38.495740    41.688521
H     58.341731    37.583348    41.811387
H     57.778491    38.513119    40.689788
H     52.247000    40.514000    36.057000
H     59.245000    39.699000    45.553000
H     48.336000    33.234000    42.783000
H     50.547000    38.485000    40.081000
78
frame=4 E_kcal=-1512.4406
C     52.246664    36.569750    48.305894
C     53.689322    36.715006    47.799458
C     53.971184    38.013463    47.024821
C     52.709851    38.851935    46.745293
C     52.894737    39.727539    45.489351
C     51.165328    37.079729    47.334664
O     50.803802    35.966574    46.558428
O     52.095573    37.256505    49.526164
O     53.981694    35.692205    46.865757
O     54.791025    38.817993    47.837842
O     51.606728    38.036590    46.390215
O     53.577302    38.995636    44.509894
H     52.028197    35.504542    48.578879
H     54.400147    36.614623    48.658983
H     54.531225    37.750718    46.086494
H     52.428075    39.458808    47.634204
H     51.916988    39.959979    45.018240
H     53.428161    40.663722    45.733167
H     50.276278    37.515886    47.839995
H     49.999658    36.151820    46.014170
H     52.504866    38.156097    49.482665
H     53.793235    34.797417    47.236040
H     55.647551    39.040698    47.334657
H     54.564599    39.016167    44.662598
P     54.334506    38.877020    41.213970
O     52.920962    39.031391    40.810327
O     55.152086    40.060550    41.738619
O     54.673186    37.610144    42.024547
P     55.982137    38.473823    38.575635
O     57.403799    38.416333    39.073741
O     55.640681    37.559579    37.451066
O     54.822121    38.419095    39.678321
P     55.280998    41.373067    37.613260
O     55.101716    42.494573    38.612806
O     56.287215    41.631251    36.516812
O     55.381911    40.010707    38.465763
O     53.759388    41.346439    36.978904
C     53.341000    40.484000    35.919000
H     53.614168    40.897393    34.940851
H     53.666629    39.437918    35.989704
C     58.586000    39.405000    44.728000
H     58.570123    40.202223    43.966547
H     58.979956    38.490891    44.256216
C     57.228684    39.175258    45.347473
O     56.255080    38.767214    44.633997
O     57.072214    39.368414    46.563182
C     49.276000    33.777000    42.633000
H     50.087667    33.088711    42.897068
H     49.353061    33.982047    41.557586
C     49.341324    35.064347    43.456036
H     48.419018    35.657185    43.283185
H     49.322979    34.818211    44.535318
C     50.565789    35.932600    43.121472
H     50.627797    36.076233    42.021925
H     50.402759    36.949364    43.539848
C     51.870939    35.327103    43.647472
H     51.666770    34.557320    44.426630
H     52.433860    34.802323    42.839167
N     52.770546    36.386371    44.250260
H     52.231889    37.040589    44.852894
H     53.467232    35.952001    44.881553
H     53.283042    36.934712    43.527600
C     50.957000    37.559000    39.635000
H     51.603478    37.027700    40.353721
O     51.717369    37.940016    38.496294
H     52.549502    38.386338    38.795571
C     49.847078    36.658107    39.101241
H     49.313805    37.131290    38.267684
H     50.237985    35.702752    38.734897
H     49.107194    36.431414    39.874625
Mg    56.241149    38.675786    42.696933
O     57.999368    38.478804    41.686613
H     58.329300    37.561775    41.811711
H     57.781257    38.497981    40.688370
H     52.247000    40.514000    36.057000
H     59.245000    39.699000    45.553000
H     48.336000    33.234000    42.783000
H     50.547000    38.485000    40.081000
78
frame=5 E_kcal=-1512.3733
C     52.244877    36.573743    48.307597
C     53.687504    36.721318    47.801435
C     53.967474    38.018437    47.023445
C     52.704321    38.853914    46.742396
C     52.886321    39.728124    45.484995
C     51.162367    37.080957    47.336285
O     50.799953    35.965799    46.563449
O     52.092734    37.261054    49.527381
O     53.982094    35.696579    46.870519
O     54.786777    38.826180    47.833755
O     51.603357    38.034934    46.388650
O     53.576268    38.999231    44.508343
H     52.028341    35.508323    48.581374
H     54.397952    36.624388    48.661648
H     54.527200    37.754011    46.085497
H     52.420932    39.461342    47.630329
H     51.908000    39.953536    45.011247
H     53.413395    40.668027    45.728103
H     50.273876    37.518673    47.841322
H     49.995350    36.149530    46.019327
H     52.496841    38.162873    49.481784
H     53.798951    34.802197    47.244557
H     55.644812    39.046224    47.332301
H     54.562524    39.024970    44.664485
P     54.334768    38.884312    41.220405
O     52.922650    39.044000    40.814319
O     55.158467    40.062396    41.746667
O     54.670611    37.613608    42.026626
P     55.978266    38.478770    38.579623
O     57.402267    38.420688    39.070870
O     55.625579    37.563986    37.459398
O     54.825805    38.422242    39.688330
P     55.276647    41.376602    37.616919
O     55.090397    42.499138    38.614436
O     56.289854    41.635584    36.527533
O     55.374732    40.014401    38.469883
O     53.757994    41.349543    36.976217
C     53.341000    40.484000    35.919000
H     53.614864    40.896964    34.940708
H     53.667270    39.438289    35.990577
C     58.586000    39.405000    44.728000
H     58.569516    40.202925    43.967499
H     58.978744    38.490839    44.255614
C     57.229577    39.175510    45.350766
O     56.254215    38.766887    44.639343
O     57.074380    39.369916    46.566296
C     49.276000    33.777000    42.633000
H     50.087548    33.088465    42.896704
H     49.353008    33.982326    41.557580
C     49.342209    35.064178    43.456200
H     48.420324    35.657545    43.283364
H     49.323619    34.817983    44.535354
C     50.567127    35.932135    43.122262
H     50.628536    36.076711    42.022788
H     50.404474    36.948620    43.541566
C     51.872531    35.325706    43.646973
H     51.668343    34.553568    44.423858
H     52.436511    34.804462    42.837007
N     52.771168    36.383836    44.253528
H     52.231704    37.033358    44.860635
H     53.470178    35.948366    44.881157
H     53.281439    36.937169    43.532852
C     50.957000    37.559000    39.635000
H     51.596804    37.024674    40.356927
O     51.723926    37.939803    38.501038
H     52.552244    38.389926    38.804907
C     49.845785    36.664989    39.091818
H     49.320683    37.143406    38.255892
H     50.233795    35.708897    38.724611
H     49.099680    36.440616    39.859691
Mg    56.243912    38.669973    42.702443
O     57.997367    38.459924    41.685101
H     58.322599    37.541568    41.809281
H     57.777279    38.483987    40.688167
H     52.247000    40.514000    36.057000
H     59.245000    39.699000    45.553000
H     48.336000    33.234000    42.783000
H     50.547000    38.485000    40.081000
78
frame=6 E_kcal=-1512.3383
C     52.243179    36.577517    48.309358
C     53.685752    36.726997    47.803332
C     53.963872    38.022653    47.022033
C     52.699443    38.855872    46.740115
C     52.878705    39.729067    45.481674
C     51.159939    37.082360    47.337569
O     50.796935    35.965393    46.567704
O     52.089962    37.265069    49.528842
O     53.982607    35.700305    46.875209
O     54.782629    38.833001    47.830196
O     51.600413    38.033879    46.387171
O     53.576543    39.004281    44.507857
H     52.028287    35.511900    48.583986
H     54.396123    36.633946    48.664137
H     54.523305    37.756661    46.084351
H     52.414750    39.463447    47.627532
H     51.900293    39.945500    45.003786
H     53.396539    40.673973    45.724847
H     50.271967    37.521781    47.841942
H     49.991381    36.147693    46.024500
H     52.488654    38.169202    49.481664
H     53.804094    34.806386    47.252700
H     55.641361    39.051139    47.329482
H     54.562168    39.035670    44.666827
P     54.339057    38.893028    41.229689
O     52.926912    39.057456    40.826761
O     55.168309    40.067692    41.755611
O     54.669645    37.618751    42.032681
P     55.973785    38.481304    38.583258
O     57.398978    38.425191    39.071193
O     55.622272    37.566507    37.463121
O     54.822670    38.429688    39.694792
P     55.274590    41.379732    37.621554
O     55.080987    42.502600    38.617390
O     56.294193    41.641503    36.537875
O     55.371257    40.017491    38.473740
O     53.757926    41.350045    36.975902
C     53.341000    40.484000    35.919000
H     53.617949    40.895481    34.941123
H     53.665450    39.437781    35.992751
C     58.586000    39.405000    44.728000
H     58.569922    40.203967    43.968624
H     58.979680    38.491732    44.254537
C     57.229914    39.175248    45.352443
O     56.253775    38.765807    44.643279
O     57.075171    39.370450    46.568064
C     49.276000    33.777000    42.633000
H     50.087421    33.088193    42.896480
H     49.353028    33.982422    41.557593
C     49.342865    35.064075    43.456339
H     48.421435    35.658117    43.283120
H     49.323872    34.817838    44.535499
C     50.568340    35.931610    43.122809
H     50.629296    36.077183    42.023407
H     50.406480    36.947648    43.543363
C     51.873991    35.324508    43.646217
H     51.670103    34.550445    44.420855
H     52.438023    34.805391    42.835335
N     52.772242    36.380976    44.256265
H     52.232167    37.026826    44.866814
H     53.473679    35.943526    44.880039
H     53.279681    36.939260    43.537552
C     50.957000    37.559000    39.635000
H     51.589918    37.020576    40.360169
O     51.731665    37.937919    38.505238
H     52.559963    38.386252    38.812372
C     49.844533    36.671912    39.082409
H     49.326392    37.156162    38.245121
H     50.229051    35.714324    38.715274
H     49.092595    36.449215    39.844996
Mg    56.244961    38.666916    42.707367
O     57.991068    38.440782    41.684629
H     58.320142    37.523606    41.800103
H     57.767577    38.471043    40.687663
H     52.247000    40.514000    36.057000
H     59.245000    39.699000    45.553000
H     48.336000    33.234000    42.783000
H     50.547000    38.485000    40.081000
78
frame=7 E_kcal=-1512.1069
C     52.241660    36.581357    48.311118
C     53.684181    36.732332    47.805136
C     53.960804    38.026325    47.020576
C     52.695478    38.857759    46.738322
C     52.871941    39.730734    45.479263
C     51.157810    37.083920    47.338803
O     50.794582    35.965496    46.571216
O     52.086880    37.268774    49.530454
O     53.983037    35.703736    46.879664
O     54.779735    38.838729    47.826331
O     51.598345    38.032904    46.385836
O     53.578797    39.011380    44.508226
H     52.028459    35.515546    48.586174
H     54.394277    36.642933    48.666525
H     54.519240    37.758708    46.082793
H     52.410152    39.465079    47.625653
H     51.892663    39.936370    44.997692
H     53.378761    40.681550    45.722974
H     50.270022    37.524311    47.842668
H     49.987811    36.146208    46.029255
H     52.480601    38.175002    49.482371
H     53.808317    34.810462    47.260435
H     55.639111    39.054241    47.325676
H     54.563612    39.044933    44.671453
P     54.342727    38.900675    41.239106
O     52.928742    39.073358    40.846434
O     55.180356    40.070859    41.761690
O     54.668704    37.624927    42.041047
P     55.968606    38.482009    38.585864
O     57.393939    38.423853    39.074619
O     55.628118    37.566980    37.461909
O     54.813505    38.441494    39.696355
P     55.272923    41.382563    37.626028
O     55.074732    42.504090    38.623051
O     56.294539    41.649288    36.546085
O     55.373427    40.020631    38.478131
O     53.758047    41.351420    36.975055
C     53.341000    40.484000    35.919000
H     53.620061    40.892053    34.940623
H     53.662820    39.437132    35.996275
C     58.586000    39.405000    44.728000
H     58.568583    40.205028    43.969517
H     58.980470    38.492812    44.253430
C     57.230979    39.174625    45.353362
O     56.254910    38.763703    44.644909
O     57.075693    39.371500    46.568980
C     49.276000    33.777000    42.633000
H     50.087291    33.087958    42.896387
H     49.353049    33.982391    41.557599
C     49.343511    35.064088    43.456365
H     48.422485    35.658664    43.282735
H     49.323927    34.817895    44.535513
C     50.569572    35.931043    43.123347
H     50.629935    36.077612    42.024032
H     50.408384    36.946886    43.544948
C     51.875149    35.322728    43.645351
H     51.671204    34.546771    44.418484
H     52.439097    34.805038    42.833307
N     52.773304    36.378354    44.257442
H     52.234166    37.020590    44.872826
H     53.475840    35.938809    44.877842
H     53.279047    36.940872    43.540180
C     50.957000    37.559000    39.635000
H     51.585220    37.016842    40.361054
O     51.739949    37.933455    38.509691
H     52.571043    38.372794    38.821747
C     49.842958    36.678407    39.075084
H     49.332805    37.167995    38.236085
H     50.224945    35.720623    38.706352
H     49.085360    36.456992    39.832464
Mg    56.251174    38.663760    42.710813
O     57.989615    38.426830    41.684808
H     58.314180    37.506551    41.790384
H     57.757720    38.464305    40.688033
H     52.247000    40.514000    36.057000
H     59.245000    39.699000    45.553000
H     48.336000    33.234000    42.783000
H     50.547000    38.485000    40.081000
78
frame=8 E_kcal=-1511.7303
C     52.240340    36.584935    48.312521
C     53.682862    36.737244    47.806892
C     53.958690    38.029533    47.019116
C     52.692399    38.859584    46.737309
C     52.865405    39.732433    45.477526
C     51.155955    37.085324    47.339818
O     50.792595    35.965677    46.574188
O     52.083881    37.272130    49.531758
O     53.983104    35.706975    46.883671
O     54.778714    38.843108    47.822091
O     51.596766    38.032467    46.385136
O     53.581298    39.019585    44.508755
H     52.028662    35.518835    48.587806
H     54.392418    36.650757    48.669068
H     54.515230    37.759846    46.080733
H     52.406423    39.466512    47.624704
H     51.885106    39.927805    44.993147
H     53.361640    40.688517    45.721173
H     50.268343    37.526509    47.843310
H     49.984743    36.144941    46.033333
H     52.472956    38.180252    49.483469
H     53.811545    34.814330    47.267414
H     55.639239    39.056405    47.321630
H     54.565078    39.052371    44.679477
P     54.344870    38.907240    41.245214
O     52.930055    39.088555    40.860200
O     55.197360    40.069790    41.760176
O     54.669654    37.628215    42.041872
P     55.962663    38.482740    38.589692
O     57.386440    38.414824    39.082172
O     55.624789    37.570259    37.463737
O     54.804086    38.451033    39.697785
P     55.270080    41.385295    37.627765
O     55.068683    42.501539    38.629791
O     56.289949    41.660094    36.548061
O     55.373450    40.023827    38.479881
O     53.757455    41.355829    36.972039
C     53.341000    40.484000    35.919000
H     53.619654    40.888447    34.939064
H     53.662857    39.437511    36.000369
C     58.586000    39.405000    44.728000
H     58.565955    40.205659    43.970376
H     58.979939    38.493072    44.252190
C     57.232188    39.173817    45.355769
O     56.256086    38.759705    44.649159
O     57.078069    39.373930    46.570574
C     49.276000    33.777000    42.633000
H     50.087164    33.087783    42.896362
H     49.352973    33.982325    41.557581
C     49.343985    35.064136    43.456259
H     48.423307    35.659187    43.282376
H     49.323989    34.818071    44.535426
C     50.570514    35.930609    43.123569
H     50.630478    36.078157    42.024342
H     50.410120    36.946133    43.546249
C     51.875975    35.321140    43.644469
H     51.671971    34.543873    44.416263
H     52.439764    34.804604    42.831581
N     52.774556    36.375500    44.258292
H     52.235994    37.014871    44.877145
H     53.478981    35.934167    44.875300
H     53.278210    36.940973    43.541834
C     50.957000    37.559000    39.635000
H     51.579577    37.014376    40.364407
O     51.747426    37.928106    38.514614
H     52.582825    38.353914    38.831823
C     49.841616    36.684156    39.068246
H     49.337327    37.178434    38.228332
H     50.221490    35.725927    38.698788
H     49.080201    36.464837    39.822132
Mg    56.258259    38.659132    42.714150
O     57.998904    38.420369    41.686958
H     58.300805    37.489525    41.785344
H     57.759954    38.466239    40.691884
H     52.247000    40.514000    36.057000
H     59.245000    39.699000    45.553000
H     48.336000    33.234000    42.783000
H     50.547000    38.485000    40.081000
78
frame=9 E_kcal=-1511.8816
C     52.239278    36.587717    48.313678
C     53.681873    36.741129    47.808260
C     53.957251    38.032075    47.017883
C     52.690095    38.861171    46.736652
C     52.859603    39.733893    45.476426
C     51.154555    37.086616    47.340597
O     50.791361    35.966077    46.576233
O     52.081558    37.274585    49.532835
O     53.983189    35.709565    46.886754
O     54.778825    38.846383    47.818293
O     51.595710    38.032235    46.384654
O     53.582919    39.026000    44.509584
H     52.028742    35.521395    48.589119
H     54.391095    36.656769    48.670933
H     54.511856    37.760186    46.078970
H     52.403869    39.467392    47.624323
H     51.878795    39.921172    44.989412
H     53.347248    40.694398    45.719775
H     50.266986    37.528708    47.843408
H     49.982377    36.143957    46.036595
H     52.466643    38.184360    49.484223
H     53.814091    34.817336    47.272498
H     55.640299    39.057613    47.318407
H     54.565238    39.057632    44.688019
P     54.350763    38.910764    41.244817
O     52.935509    39.101080    40.865643
O     55.214057    40.068033    41.754485
O     54.672902    37.627824    42.036893
P     55.958845    38.483044    38.589838
O     57.377978    38.405631    39.089855
O     55.598631    37.573718    37.467384
O     54.801083    38.451672    39.698306
P     55.266074    41.388893    37.626534
O     55.062867    42.498973    38.634999
O     56.282573    41.672196    36.545726
O     55.368245    40.024346    38.475028
O     53.755354    41.362034    36.967892
C     53.341000    40.484000    35.919000
H     53.617417    40.885858    34.937087
H     53.667114    39.439140    36.004091
C     58.586000    39.405000    44.728000
H     58.564526    40.206095    43.970840
H     58.978942    38.493329    44.251047
C     57.233598    39.173268    45.359003
O     56.256766    38.754608    44.656253
O     57.081930    39.377205    46.573872
C     49.276000    33.777000    42.633000
H     50.087107    33.087692    42.896300
H     49.352854    33.982208    41.557544
C     49.344365    35.064251    43.456095
H     48.423905    35.659609    43.282035
H     49.324238    34.818322    44.535285
C     50.571251    35.930385    43.123701
H     50.630957    36.078691    42.024562
H     50.411476    36.945672    43.547211
C     51.876567    35.319858    43.643685
H     51.672346    34.541664    44.414483
H     52.440189    34.804089    42.830130
N     52.775611    36.373108    44.258932
H     52.237586    37.010319    44.880479
H     53.481385    35.930268    44.873410
H     53.277476    36.940855    43.543073
C     50.957000    37.559000    39.635000
H     51.569185    37.012913    40.372055
O     51.756088    37.923839    38.518892
H     52.596127    38.340509    38.838129
C     49.840682    36.688695    39.062694
H     49.339268    37.185723    38.222742
H     50.217773    35.729304    38.693502
H     49.076576    36.470987    39.814553
Mg    56.257731    38.654995    42.719717
O     58.007563    38.415803    41.694921
H     58.286771    37.476032    41.785396
H     57.782098    38.475066    40.703617
H     52.247000    40.514000    36.057000
H     59.245000    39.699000    45.553000
H     48.336000    33.234000    42.783000
H     50.547000    38.485000    40.081000
78
frame=10 E_kcal=-1511.8867
C     52.238792    36.589036    48.314244
C     53.681408    36.742892    47.808923
C     53.956428    38.033195    47.017298
C     52.688972    38.861999    46.736400
C     52.856806    39.734760    45.475978
C     51.154019    37.087246    47.340876
O     50.790861    35.966259    46.577191
O     52.080342    37.275737    49.533368
O     53.983332    35.710824    46.888169
O     54.778715    38.848038    47.816282
O     51.595261    38.032183    46.384354
O     53.583472    39.029024    44.510111
H     52.028787    35.522609    48.589754
H     54.390657    36.659555    48.671652
H     54.510429    37.760145    46.078397
H     52.403036    39.467772    47.624485
H     51.875930    39.917967    44.987364
H     53.340135    40.697498    45.719280
H     50.266439    37.529927    47.843084
H     49.981312    36.143589    46.038192
H     52.463653    38.186229    49.484679
H     53.815322    34.818766    47.274757
H     55.640663    39.057536    47.316800
H     54.564977    39.059486    44.692414
P     54.356286    38.910866    41.242166
O     52.940508    39.107625    40.867783
O     55.221675    40.067648    41.751891
O     54.674396    37.626094    42.034414
P     55.956367    38.481674    38.584399
O     57.372876    38.402231    39.088943
O     55.575392    37.573635    37.468182
O     54.803708    38.448639    39.696666
P     55.262204    41.391138    37.625465
O     55.060425    42.499352    38.636551
O     56.277908    41.679167    36.544653
O     55.365030    40.023010    38.469071
O     53.752547    41.365899    36.965550
C     53.341000    40.484000    35.919000
H     53.615492    40.884529    34.935969
H     53.671073    39.440645    36.006011
C     58.586000    39.405000    44.728000
H     58.564744    40.206180    43.971063
H     58.978768    38.493679    44.250284
C     57.234511    39.173267    45.361408
O     56.256603    38.751802    44.661102
O     57.084224    39.379155    46.576022
C     49.276000    33.777000    42.633000
H     50.087143    33.087704    42.896245
H     49.352810    33.982120    41.557512
C     49.344573    35.064309    43.456000
H     48.424206    35.659759    43.281824
H     49.324465    34.818499    44.535208
C     50.571610    35.930315    43.123720
H     50.631159    36.078962    42.024595
H     50.412086    36.945452    43.547666
C     51.876839    35.319263    43.643319
H     51.672350    34.540610    44.413626
H     52.440249    34.803847    42.829411
N     52.776191    36.371943    44.259262
H     52.238334    37.008049    44.882095
H     53.482601    35.928526    44.872618
H     53.277295    36.940704    43.543652
C     50.957000    37.559000    39.635000
H     51.562471    37.012205    40.377434
O     51.761605    37.918611    38.523633
H     52.600050    38.337268    38.843129
C     49.839744    36.690728    39.060440
H     49.340036    37.188444    38.220026
H     50.215470    35.730933    38.691040
H     49.074600    36.473380    39.811461
Mg    56.254578    38.654230    42.723652
O     58.008897    38.409344    41.702438
H     58.281727    37.468736    41.790555
H     57.801509    38.486610    40.714877
H     52.247000    40.514000    36.057000
H     59.245000    39.699000    45.553000
H     48.336000    33.234000    42.783000
H     50.547000    38.485000    40.081000
78
frame=11 E_kcal=-1511.7856
C     52.238610    36.589507    48.314454
C     53.681210    36.743550    47.809191
C     53.956074    38.033596    47.017066
C     52.688533    38.862348    46.736335
C     52.855773    39.735139    45.475875
C     51.153862    37.087483    47.340923
O     50.790689    35.966288    46.577550
O     52.079895    37.276137    49.533575
O     53.983430    35.711275    46.888706
O     54.778523    38.848663    47.815570
O     51.595143    38.032189    46.384180
O     53.583718    39.030071    44.510396
H     52.028827    35.523046    48.589982
H     54.390535    36.660481    48.671839
H     54.510009    37.760077    46.078253
H     52.402857    39.467929    47.624654
H     51.874914    39.916826    44.986552
H     53.337537    40.698623    45.719126
H     50.266293    37.530369    47.842875
H     49.980951    36.143499    46.038788
H     52.462591    38.186882    49.484856
H     53.815764    34.819300    47.275533
H     55.640747    39.057321    47.316153
H     54.564890    39.060028    44.693900
P     54.359313    38.910130    41.239811
O     52.942996    39.110084    40.869096
O     55.223938    40.067138    41.751334
O     54.674474    37.625706    42.033694
P     55.955376    38.481201    38.581008
O     57.371579    38.401495    39.089983
O     55.564473    37.572424    37.467149
O     54.805667    38.447217    39.696213
P     55.260740    41.391935    37.625221
O     55.059675    42.500032    38.636736
O     56.275867    41.681800    36.544691
O     55.363999    40.022185    38.466001
O     53.750843    41.367761    36.964911
C     53.341000    40.484000    35.919000
H     53.614612    40.883997    34.935413
H     53.672867    39.441291    36.006725
C     58.586000    39.405000    44.728000
H     58.565076    40.206183    43.971095
H     58.978810    38.493918    44.249947
C     57.234928    39.173288    45.362294
O     56.256457    38.750717    44.663210
O     57.084944    39.379886    46.576890
C     49.276000    33.777000    42.633000
H     50.087177    33.087725    42.896223
H     49.352801    33.982082    41.557505
C     49.344675    35.064320    43.455956
H     48.424341    35.659785    43.281740
H     49.324559    34.818578    44.535186
C     50.571733    35.930296    43.123701
H     50.631217    36.079058    42.024570
H     50.412297    36.945360    43.547841
C     51.876927    35.319056    43.643210
H     51.672326    34.540252    44.413298
H     52.440227    34.803765    42.829149
N     52.776371    36.371504    44.259401
H     52.238566    37.007222    44.882718
H     53.483080    35.927961    44.872349
H     53.277283    36.940584    43.543857
C     50.957000    37.559000    39.635000
H     51.559740    37.011971    40.379570
O     51.763845    37.915787    38.524899
H     52.600619    38.336763    38.845941
C     49.839238    36.691405    39.059701
H     49.340345    37.189269    38.218922
H     50.214566    35.731541    38.690099
H     49.073810    36.474087    39.810537
Mg    56.252473    38.654691    42.725537
O     58.008191    38.406267    41.703577
H     58.281123    37.464408    41.794639
H     57.809826    38.493453    40.719363
H     52.247000    40.514000    36.057000
H     59.245000    39.699000    45.553000
H     48.336000    33.234000    42.783000
H     50.547000    38.485000    40.081000
78
frame=12 E_kcal=-1511.6796
C     52.238535    36.589680    48.314516
C     53.681135    36.743769    47.809266
C     53.955940    38.033734    47.016994
C     52.688397    38.862481    46.736300
C     52.855436    39.735258    45.475796
C     51.153835    37.087564    47.340921
O     50.790619    35.966296    46.577668
O     52.079739    37.276271    49.533657
O     53.983469    35.711462    46.888907
O     54.778454    38.848887    47.815306
O     51.595093    38.032175    46.384113
O     53.583767    39.030459    44.510561
H     52.028846    35.523191    48.590064
H     54.390504    36.660788    48.671896
H     54.509879    37.760046    46.078211
H     52.402808    39.467994    47.624745
H     51.874568    39.916434    44.986264
H     53.336633    40.699002    45.719074
H     50.266242    37.530525    47.842795
H     49.980839    36.143472    46.039004
H     52.462228    38.187108    49.484918
H     53.815915    34.819473    47.275801
H     55.640760    39.057219    47.315929
H     54.564857    39.060201    44.694392
P     54.360484    38.909836    41.238686
O     52.943842    39.110942    40.869680
O     55.224733    40.067004    41.751338
O     54.674465    37.625453    42.033666
P     55.954719    38.480257    38.579594
O     57.369979    38.401351    39.088304
O     55.560745    37.572722    37.467582
O     54.807082    38.446722    39.695224
P     55.260043    41.392194    37.625271
O     55.059401    42.500462    38.636915
O     56.275456    41.682768    36.544435
O     55.363761    40.021535    38.464931
O     53.749964    41.368428    36.964633
C     53.341000    40.484000    35.919000
H     53.614284    40.883817    34.935184
H     53.673528    39.441501    36.006963
C     58.586000    39.405000    44.728000
H     58.565228    40.206192    43.971116
H     58.978847    38.494018    44.249843
C     57.235030    39.173280    45.362595
O     56.256514    38.750351    44.663986
O     57.085148    39.380131    46.577180
C     49.276000    33.777000    42.633000
H     50.087192    33.087734    42.896216
H     49.352798    33.982068    41.557502
C     49.344703    35.064321    43.455953
H     48.424397    35.659786    43.281711
H     49.324592    34.818608    44.535172
C     50.571784    35.930287    43.123684
H     50.631236    36.079091    42.024558
H     50.412367    36.945331    43.547906
C     51.876956    35.318983    43.643151
H     51.672318    34.540134    44.413183
H     52.440206    34.803740    42.829066
N     52.776427    36.371343    44.259485
H     52.238644    37.006939    44.882935
H     53.483246    35.927784    44.872248
H     53.277268    36.940538    43.543928
C     50.957000    37.559000    39.635000
H     51.558749    37.011894    40.380330
O     51.764591    37.914738    38.525307
H     52.600764    38.336595    38.846957
C     49.839043    36.691637    39.059475
H     49.340450    37.189543    38.218504
H     50.214251    35.731740    38.689757
H     49.073526    36.474310    39.810245
Mg    56.251499    38.655044    42.726303
O     58.008976    38.404128    41.708352
H     58.280935    37.463411    41.796205
H     57.812427    38.496373    40.718420
H     52.247000    40.514000    36.057000
H     59.245000    39.699000    45.553000
H     48.336000    33.234000    42.783000
H     50.547000    38.485000    40.081000
78
frame=13 E_kcal=-1511.6496
C     52.238511    36.589734    48.314532
C     53.681112    36.743830    47.809282
C     53.955900    38.033775    47.016976
C     52.688361    38.862523    46.736286
C     52.855344    39.735286    45.475760
C     51.153833    37.087586    47.340917
O     50.790597    35.966299    46.577702
O     52.079692    37.276310    49.533683
O     53.983480    35.711526    46.888970
O     54.778430    38.848952    47.815226
O     51.595074    38.032165    46.384093
O     53.583761    39.030584    44.510623
H     52.028852    35.523232    48.590089
H     54.390497    36.660878    48.671913
H     54.509843    37.760035    46.078200
H     52.402795    39.468016    47.624777
H     51.874466    39.916318    44.986178
H     53.336365    40.699113    45.719059
H     50.266226    37.530572    47.842771
H     49.980808    36.143464    46.039070
H     52.462121    38.187176    49.484936
H     53.815960    34.819520    47.275881
H     55.640762    39.057186    47.315862
H     54.564850    39.060250    44.694537
P     54.360800    38.909802    41.238303
O     52.944118    39.111190    40.869879
O     55.224964    40.066970    41.751365
O     54.674466    37.625314    42.033712
P     55.954823    38.479621    38.579019
O     57.368942    38.401339    39.087196
O     55.559739    37.573083    37.468047
O     54.807556    38.446569    39.694843
P     55.259711    41.392340    37.625406
O     55.059329    42.500543    38.636935
O     56.275447    41.683077    36.544248
O     55.363687    40.021349    38.464620
O     53.749689    41.368618    36.964549
C     53.341000    40.484000    35.919000
H     53.614184    40.883764    34.935112
H     53.673727    39.441562    36.007032
C     58.586000    39.405000    44.728000
H     58.565279    40.206199    43.971122
H     58.978862    38.494050    44.249815
C     57.235023    39.173274    45.362723
O     56.256575    38.750251    44.664228
O     57.085212    39.380194    46.577215
C     49.276000    33.777000    42.633000
H     50.087197    33.087736    42.896215
H     49.352797    33.982063    41.557501
C     49.344709    35.064320    43.455955
H     48.424415    35.659785    43.281702
H     49.324602    34.818618    44.535165
C     50.571802    35.930284    43.123678
H     50.631241    36.079101    42.024554
H     50.412388    36.945324    43.547926
C     51.876963    35.318960    43.643127
H     51.672315    34.540100    44.413150
H     52.440198    34.803733    42.829044
N     52.776445    36.371297    44.259516
H     52.238667    37.006855    44.882999
H     53.483294    35.927734    44.872216
H     53.277259    36.940522    43.543952
C     50.957000    37.559000    39.635000
H     51.558451    37.011871    40.380556
O     51.764809    37.914420    38.525424
H     52.600799    38.336546    38.847262
C     49.838984    36.691706    39.059413
H     49.340480    37.189624    38.218375
H     50.214157    35.731796    38.689653
H     49.073441    36.474374    39.810161
Mg    56.251185    38.655182    42.726549
O     58.009484    38.403209    41.710853
H     58.280845    37.463315    41.796654
H     57.813109    38.497313    40.717537
H     52.247000    40.514000    36.057000
H     59.245000    39.699000    45.553000
H     48.336000    33.234000    42.783000
H     50.547000    38.485000    40.081000
78
frame=14 E_kcal=-1511.3553
C     52.238382    36.589932    48.314654
C     53.680971    36.744132    47.809485
C     53.955735    38.033923    47.016858
C     52.688111    38.862707    46.736335
C     52.854879    39.735425    45.475713
C     51.153704    37.087716    47.340869
O     50.790578    35.966237    46.577908
O     52.079527    37.276486    49.533766
O     53.983542    35.711676    46.889271
O     54.778288    38.849270    47.814917
O     51.595077    38.032224    46.383906
O     53.583963    39.030962    44.510564
H     52.028905    35.523417    48.590190
H     54.390462    36.661236    48.671917
H     54.509739    37.759979    46.078132
H     52.402767    39.468135    47.624969
H     51.873962    39.915849    44.985772
H     53.335228    40.699664    45.719030
H     50.266218    37.530740    47.842647
H     49.980630    36.143478    46.039336
H     52.461655    38.187437    49.485019
H     53.816168    34.819817    47.276175
H     55.640857    39.057013    47.315492
H     54.564873    39.060463    44.695286
P     54.362300    38.909199    41.237614
O     52.945032    39.112337    40.870786
O     55.225984    40.066979    41.751602
O     54.674209    37.624950    42.033669
P     55.958009    38.479275    38.575861
O     57.370455    38.401398    39.098211
O     55.552012    37.570105    37.465603
O     54.808781    38.445590    39.694164
P     55.258726    41.393923    37.623738
O     55.059102    42.500989    38.637346
O     56.274679    41.684117    36.544440
O     55.362222    40.021939    38.463882
O     53.748583    41.369302    36.964307
C     53.341000    40.484000    35.919000
H     53.613784    40.883612    34.934596
H     53.674693    39.441674    36.007322
C     58.586000    39.405000    44.728000
H     58.565539    40.206144    43.971118
H     58.978884    38.494283    44.249658
C     57.235336    39.173289    45.363111
O     56.256358    38.749716    44.665041
O     57.085307    39.380495    46.577687
C     49.276000    33.777000    42.633000
H     50.087224    33.087757    42.896207
H     49.352795    33.982044    41.557518
C     49.344814    35.064321    43.455895
H     48.424498    35.659778    43.281664
H     49.324639    34.818658    44.535176
C     50.571819    35.930300    43.123672
H     50.631258    36.079140    42.024519
H     50.412490    36.945242    43.548004
C     51.876987    35.318920    43.643135
H     51.672312    34.539985    44.412973
H     52.440184    34.803676    42.828903
N     52.776476    36.371110    44.259555
H     52.238765    37.006487    44.883282
H     53.483535    35.927541    44.872085
H     53.277206    36.940376    43.544127
C     50.957000    37.559000    39.635000
H     51.557043    37.011868    40.381443
O     51.765657    37.912941    38.526266
H     52.600607    38.336216    38.848576
C     49.838581    36.691895    39.059005
H     49.340658    37.189951    38.217775
H     50.213762    35.732071    38.689197
H     49.073014    36.474595    39.809944
Mg    56.249441    38.655850    42.728401
O     58.006598    38.400598    41.696369
H     58.281100    37.460880    41.800703
H     57.817882    38.502249    40.723775
H     52.247000    40.514000    36.057000
H     59.245000    39.699000    45.553000
H     48.336000    33.234000    42.783000
H     50.547000    38.485000    40.081000
78
frame=15 E_kcal=-1509.6332
C     52.233873    36.596221    48.311722
C     53.676819    36.753755    47.807530
C     53.950561    38.040824    47.009947
C     52.680539    38.865474    46.726502
C     52.844052    39.733029    45.462060
C     51.148394    37.091110    47.337668
O     50.781008    35.967279    46.579958
O     52.072087    37.282088    49.530832
O     53.981344    35.718959    46.890307
O     54.773858    38.861342    47.801576
O     51.591110    38.029310    46.375658
O     53.586765    39.030165    44.506477
H     52.026810    35.529004    48.586857
H     54.385148    36.674826    48.671173
H     54.504290    37.761548    46.072391
H     52.392978    39.473323    47.612431
H     51.864673    39.898974    44.964382
H     53.312981    40.703688    45.701260
H     50.262047    37.537838    47.838570
H     49.977694    36.148738    46.032901
H     52.450164    38.194779    49.482523
H     53.817441    34.827844    47.280451
H     55.637163    39.068135    47.303076
H     54.564274    39.062860    44.708034
P     54.344571    38.914991    41.268016
O     52.929681    39.116590    40.891735
O     55.205061    40.068449    41.794631
O     54.653644    37.624420    42.057693
P     55.927685    38.486558    38.588196
O     57.360563    38.412722    39.032031
O     55.490046    37.566215    37.500526
O     54.803918    38.456079    39.729665
P     55.256698    41.396839    37.631478
O     55.050815    42.511127    38.636172
O     56.284602    41.676404    36.561116
O     55.345025    40.033486    38.483006
O     53.752080    41.374570    36.958604
C     53.341000    40.484000    35.919000
H     53.616493    40.880007    34.934541
H     53.671959    39.441931    36.012751
C     58.586000    39.405000    44.728000
H     58.561798    40.204088    43.969093
H     58.971225    38.491124    44.249728
C     57.238126    39.180848    45.374252
O     56.256375    38.741623    44.690129
O     57.090772    39.405632    46.586249
C     49.276000    33.777000    42.633000
H     50.086807    33.087582    42.897047
H     49.352975    33.981333    41.557341
C     49.344931    35.064799    43.454976
H     48.426053    35.661784    43.278680
H     49.322493    34.820039    44.534364
C     50.574406    35.927773    43.123818
H     50.632895    36.080032    42.025062
H     50.419373    36.942124    43.551238
C     51.878093    35.309859    43.638990
H     51.671833    34.528736    44.406177
H     52.438691    34.795989    42.822194
N     52.781503    36.357122    44.258368
H     52.247146    36.987717    44.889756
H     53.492195    35.908699    44.862761
H     53.277742    36.932218    43.543733
C     50.957000    37.559000    39.635000
H     51.549247    36.996913    40.375533
O     51.776241    37.929132    38.536605
H     52.611406    38.344462    38.868175
C     49.842583    36.710422    39.023574
H     49.366786    37.227581    38.179827
H     50.216478    35.752370    38.647041
H     49.058318    36.489592    39.752447
Mg    56.226372    38.649087    42.758406
O     58.000254    38.386655    41.776449
H     58.223379    37.425742    41.802576
H     57.842428    38.553656    40.801856
H     52.247000    40.514000    36.057000
H     59.245000    39.699000    45.553000
H     48.336000    33.234000    42.783000
H     50.547000    38.485000    40.081000
78
frame=16 E_kcal=-1508.4184
C     52.228837    36.602740    48.307471
C     53.671964    36.763392    47.804768
C     53.945382    38.047937    47.002562
C     52.672682    38.867894    46.714737
C     52.833481    39.729378    45.445538
C     51.142219    37.094916    47.333429
O     50.769858    35.968544    46.581946
O     52.064729    37.287678    49.526735
O     53.979108    35.726233    46.890878
O     54.769215    38.872739    47.789077
O     51.586414    38.026572    46.365971
O     53.588983    39.027576    44.499578
H     52.024517    35.534988    48.582357
H     54.379371    36.689575    48.669485
H     54.497898    37.764125    46.065165
H     52.380970    39.478494    47.596769
H     51.855401    39.882464    44.941236
H     53.292679    40.705735    45.680048
H     50.257836    37.545537    47.834517
H     49.975293    36.154742    46.023412
H     52.439330    38.201576    49.478050
H     53.817932    34.835846    47.283465
H     55.631088    39.082778    47.290776
H     54.562980    39.062739    44.718899
P     54.320824    38.922027    41.299823
O     52.906776    39.115175    40.916981
O     55.173796    40.072802    41.843594
O     54.627262    37.626426    42.085712
P     55.902903    38.493234    38.615408
O     57.342682    38.425174    39.024330
O     55.437306    37.570923    37.540734
O     54.791898    38.468372    39.767682
P     55.252507    41.397521    37.641685
O     55.041900    42.523025    38.632323
O     56.297232    41.656453    36.582770
O     55.330704    40.044745    38.508739
O     53.756082    41.380830    36.951260
C     53.341000    40.484000    35.919000
H     53.621146    40.875233    34.933592
H     53.664443    39.439346    36.017484
C     58.586000    39.405000    44.728000
H     58.558363    40.200973    43.966706
H     58.963285    38.486914    44.251249
C     57.240576    39.188889    45.385415
O     56.255181    38.734788    44.716412
O     57.095356    39.433683    46.594303
C     49.276000    33.777000    42.633000
H     50.086283    33.087315    42.897916
H     49.353441    33.980420    41.557256
C     49.345014    35.065484    43.453943
H     48.427643    35.664199    43.275040
H     49.319767    34.821609    44.533408
C     50.577119    35.924826    43.123919
H     50.634623    36.080844    42.025630
H     50.427255    36.938413    43.555010
C     51.879164    35.299585    43.634853
H     51.671622    34.515633    44.398806
H     52.436788    34.787165    42.814998
N     52.787097    36.341386    44.256620
H     52.256507    36.967204    44.895290
H     53.501742    35.887771    44.852268
H     53.278508    36.923141    43.543065
C     50.957000    37.559000    39.635000
H     51.543349    36.981180    40.364991
O     51.784231    37.952847    38.548776
H     52.621862    38.355418    38.887123
C     49.848091    36.730832    38.985788
H     49.401445    37.269146    38.138836
H     50.222771    35.778014    38.598553
H     49.042201    36.505638    39.688464
Mg    56.199582    38.637254    42.787486
O     57.990043    38.370016    41.834301
H     58.155818    37.397465    41.792719
H     57.865295    38.605054    40.867810
H     52.247000    40.514000    36.057000
H     59.245000    39.699000    45.553000
H     48.336000    33.234000    42.783000
H     50.547000    38.485000    40.081000
78
frame=17 E_kcal=-1507.5815
C     52.224069    36.608258    48.302108
C     53.667395    36.772196    47.800451
C     53.939147    38.055001    46.994389
C     52.664325    38.870793    46.702233
C     52.824113    39.725484    45.428315
C     51.136393    37.098910    47.328184
O     50.758586    35.969756    46.583580
O     52.058523    37.292883    49.521399
O     53.978153    35.732643    46.890490
O     54.762498    38.882723    47.778046
O     51.582275    38.023288    46.354770
O     53.589186    39.022685    44.490689
H     52.021878    35.539913    48.576415
H     54.373888    36.702769    48.666461
H     54.492698    37.767413    46.058604
H     52.369512    39.484040    47.581028
H     51.847496    39.868988    44.918764
H     53.276389    40.706232    45.657578
H     50.254639    37.554090    47.829735
H     49.974354    36.160904    46.012248
H     52.431058    38.207753    49.471993
H     53.818110    34.843248    47.285403
H     55.623197    39.097352    47.279550
H     54.559542    39.058430    44.724424
P     54.291655    38.923867    41.331144
O     52.876802    39.112194    40.947668
O     55.136579    40.074798    41.889775
O     54.595890    37.625352    42.114488
P     55.876059    38.502631    38.644921
O     57.316502    38.431360    39.045232
O     55.398789    37.580535    37.575629
O     54.768909    38.475285    39.800955
P     55.244468    41.397780    37.651348
O     55.031321    42.536531    38.624650
O     56.309162    41.624529    36.604645
O     55.312977    40.057963    38.537441
O     53.756447    41.387292    36.944808
C     53.341000    40.484000    35.919000
H     53.623791    40.865968    34.931354
H     53.658797    39.438571    36.023389
C     58.586000    39.405000    44.728000
H     58.559006    40.196823    43.962934
H     58.957569    38.483565    44.254580
C     57.240842    39.197769    45.393442
O     56.254050    38.728247    44.736383
O     57.094656    39.459450    46.598487
C     49.276000    33.777000    42.633000
H     50.085940    33.087148    42.898859
H     49.354309    33.979358    41.557059
C     49.345324    35.065925    43.452702
H     48.429731    35.666388    43.270691
H     49.316749    34.823521    44.532385
C     50.580105    35.921592    43.124336
H     50.636583    36.081526    42.026577
H     50.435391    36.934287    43.559202
C     51.880546    35.289214    43.630722
H     51.671618    34.502714    44.391308
H     52.434529    34.777886    42.807617
N     52.792431    36.325788    44.254638
H     52.265403    36.947295    44.900282
H     53.511108    35.868178    44.841771
H     53.279286    36.913434    43.541392
C     50.957000    37.559000    39.635000
H     51.535286    36.967116    40.359058
O     51.791915    37.970513    38.559112
H     52.625206    38.368724    38.910554
C     49.855009    36.750551    38.949123
H     49.439225    37.309839    38.099148
H     50.232879    35.803574    38.550735
H     49.030007    36.521313    39.626897
Mg    56.174119    38.633354    42.808954
O     57.982381    38.349467    41.890371
H     58.092800    37.373573    41.778670
H     57.894534    38.656386    40.941497
H     52.247000    40.514000    36.057000
H     59.245000    39.699000    45.553000
H     48.336000    33.234000    42.783000
H     50.547000    38.485000    40.081000
78
frame=18 E_kcal=-1506.7786
C     52.219866    36.613324    48.295711
C     53.663307    36.779823    47.795123
C     53.933361    38.061248    46.986573
C     52.656940    38.873258    46.689270
C     52.815987    39.722087    45.411075
C     51.131508    37.102737    47.322139
O     50.747765    35.970822    46.584749
O     52.053526    37.298054    49.514880
O     53.978142    35.738423    46.888641
O     54.754728    38.893390    47.767799
O     51.579003    38.020063    46.343081
O     53.587644    39.015286    44.482055
H     52.018883    35.544572    48.569304
H     54.368597    36.714358    48.661927
H     54.489390    37.771176    46.052729
H     52.359243    39.489446    47.564740
H     51.840847    39.858473    44.896539
H     53.263349    40.706433    45.635109
H     50.252526    37.563652    47.822999
H     49.974436    36.167328    46.000579
H     52.425130    38.213286    49.465096
H     53.819042    34.849864    47.285897
H     55.613689    39.109817    47.268444
H     54.555474    39.050263    44.726995
P     54.254627    38.917998    41.363237
O     52.839360    39.112754    40.982875
O     55.096540    40.071286    41.920661
O     54.570473    37.619956    42.142562
P     55.845864    38.510083    38.680734
O     57.282858    38.433364    39.085490
O     55.373230    37.594702    37.603632
O     54.734073    38.477571    39.831457
P     55.236528    41.396747    37.661879
O     55.020996    42.554416    38.611433
O     56.314980    41.591317    36.621453
O     55.282937    40.068296    38.566850
O     53.756641    41.393683    36.938818
C     53.341000    40.484000    35.919000
H     53.623994    40.856368    34.927660
H     53.662559    39.439532    36.033681
C     58.586000    39.405000    44.728000
H     58.563805    40.191702    43.958087
H     58.953728    38.479013    44.258948
C     57.238816    39.204535    45.393142
O     56.252041    38.724005    44.744671
O     57.089018    39.481846    46.594752
C     49.276000    33.777000    42.633000
H     50.085556    33.087049    42.899880
H     49.355192    33.978143    41.556963
C     49.345499    35.066511    43.451422
H     48.431965    35.668931    43.265689
H     49.313682    34.825488    44.531526
C     50.583233    35.918435    43.124988
H     50.639217    36.082724    42.027592
H     50.443427    36.930108    43.563807
C     51.882017    35.278742    43.626592
H     51.671679    34.490142    44.384453
H     52.432740    34.768971    42.800328
N     52.797716    36.310614    44.252085
H     52.274079    36.927929    44.904277
H     53.520426    35.850287    44.831527
H     53.280413    36.903761    43.538992
C     50.957000    37.559000    39.635000
H     51.518805    36.956732    40.361680
O     51.810332    37.972818    38.573911
H     52.629148    38.388344    38.937558
C     49.863699    36.768536    38.914179
H     49.471620    37.345638    38.064110
H     50.244245    35.824962    38.509216
H     49.022811    36.535337    39.568939
Mg    56.152638    38.635662    42.821036
O     57.974372    38.323878    41.949364
H     58.040215    37.353036    41.766099
H     57.929177    38.706004    41.026501
H     52.247000    40.514000    36.057000
H     59.245000    39.699000    45.553000
H     48.336000    33.234000    42.783000
H     50.547000    38.485000    40.081000
78
frame=19 E_kcal=-1505.9874
C     52.216139    36.618383    48.288639
C     53.659978    36.786680    47.789483
C     53.928419    38.067025    46.978629
C     52.650482    38.875403    46.676069
C     52.809584    39.718417    45.394132
C     51.127268    37.106967    47.315067
O     50.737797    35.972491    46.584552
O     52.049426    37.302998    49.507923
O     53.977781    35.744014    46.885249
O     54.747221    38.903079    47.758044
O     51.576503    38.017144    46.330311
O     53.585755    39.006667    44.472893
H     52.016216    35.549479    48.562239
H     54.364560    36.724189    48.657307
H     54.487577    37.774876    46.046788
H     52.349691    39.494375    47.548443
H     51.836111    39.849757    44.875910
H     53.253532    40.704998    45.613199
H     50.250709    37.573638    47.815071
H     49.974140    36.173259    45.989195
H     52.421228    38.218029    49.457621
H     53.821509    34.855724    47.284377
H     55.606019    39.122205    47.257120
H     54.551420    39.040099    44.728579
P     54.215829    38.912633    41.390522
O     52.796874    39.106685    41.026057
O     55.060537    40.069863    41.935581
O     54.544771    37.614010    42.163734
P     55.815305    38.515479    38.719439
O     57.243382    38.438514    39.152544
O     55.354851    37.611590    37.627585
O     54.686716    38.474707    39.854513
P     55.224328    41.393431    37.671495
O     55.018511    42.574025    38.594493
O     56.312198    41.562196    36.637366
O     55.246254    40.073287    38.591767
O     53.754608    41.404240    36.930304
C     53.341000    40.484000    35.919000
H     53.623423    40.851545    34.926094
H     53.670191    39.443912    36.042983
C     58.586000    39.405000    44.728000
H     58.571203    40.186499    43.952884
H     58.950838    38.474966    44.265165
C     57.234809    39.212249    45.386815
O     56.250123    38.724227    44.741479
O     57.078858    39.499522    46.585823
C     49.276000    33.777000    42.633000
H     50.085079    33.086874    42.901037
H     49.355932    33.977075    41.556716
C     49.345755    35.067446    43.449715
H     48.434306    35.671914    43.260756
H     49.310554    34.827651    44.529880
C     50.586622    35.915551    43.125654
H     50.642407    36.084533    42.028863
H     50.451374    36.925959    43.568622
C     51.883638    35.268932    43.622797
H     51.672088    34.478333    44.378243
H     52.431394    34.760746    42.793753
N     52.803246    36.296179    44.249693
H     52.282716    36.910299    44.906729
H     53.529603    35.832720    44.821666
H     53.281951    36.894305    43.537063
C     50.957000    37.559000    39.635000
H     51.491475    36.946698    40.375130
O     51.840999    37.960436    38.596214
H     52.637311    38.410103    38.970997
C     49.871470    36.783575    38.885243
H     49.496916    37.372039    38.035498
H     50.255196    35.843117    38.476305
H     49.016811    36.545514    39.520105
Mg    56.130378    38.635807    42.822618
O     57.969280    38.298149    42.006844
H     57.999414    37.339272    41.755011
H     57.970925    38.745525    41.116239
H     52.247000    40.514000    36.057000
H     59.245000    39.699000    45.553000
H     48.336000    33.234000    42.783000
H     50.547000    38.485000    40.081000
78
frame=20 E_kcal=-1505.1546
C     52.212816    36.623370    48.281234
C     53.656869    36.792933    47.783198
C     53.924285    38.072279    46.970772
C     52.645221    38.876881    46.663181
C     52.804743    39.714380    45.377696
C     51.123509    37.110882    47.307554
O     50.728266    35.974497    46.583100
O     52.045388    37.308473    49.500270
O     53.977014    35.749670    46.880364
O     54.740289    38.911897    47.749349
O     51.575004    38.014034    46.317681
O     53.584115    38.998443    44.462424
H     52.013932    35.554455    48.554896
H     54.360852    36.732338    48.651664
H     54.485901    37.778123    46.040740
H     52.340709    39.498187    47.532183
H     51.832007    39.841693    44.856702
H     53.248214    40.702230    45.591938
H     50.249520    37.583177    47.806622
H     49.972701    36.178546    45.978334
H     52.419104    38.222816    49.450458
H     53.825554    34.861587    47.280997
H     55.596857    39.134215    47.247480
H     54.548400    39.029921    44.726997
P     54.175802    38.912105    41.412629
O     52.748344    39.091101    41.075375
O     55.033022    40.070822    41.937170
O     54.515261    37.610008    42.178570
P     55.780595    38.525124    38.755261
O     57.191857    38.451926    39.237639
O     55.350568    37.622947    37.649987
O     54.630623    38.475966    39.871427
P     55.212247    41.396611    37.678099
O     55.021073    42.589561    38.589413
O     56.310174    41.530907    36.650348
O     55.209621    40.082015    38.608444
O     53.748774    41.416381    36.924281
C     53.341000    40.484000    35.919000
H     53.623296    40.852057    34.925309
H     53.674129    39.445147    36.045042
C     58.586000    39.405000    44.728000
H     58.579854    40.181339    43.947865
H     58.949063    38.469904    44.271973
C     57.231253    39.220472    45.378237
O     56.248647    38.729880    44.732840
O     57.069721    39.515288    46.574838
C     49.276000    33.777000    42.633000
H     50.084599    33.086764    42.902292
H     49.356666    33.975814    41.556575
C     49.346407    35.068404    43.448049
H     48.437085    35.674956    43.255643
H     49.307356    34.830153    44.528233
C     50.590136    35.912979    43.126296
H     50.646216    36.086702    42.030207
H     50.459456    36.922320    43.573680
C     51.885432    35.259938    43.619350
H     51.672693    34.467610    44.372465
H     52.430128    34.752726    42.787487
N     52.808900    36.282704    44.247751
H     52.291881    36.894488    44.909572
H     53.537414    35.815073    44.812979
H     53.284876    36.884816    43.535042
C     50.957000    37.559000    39.635000
H     51.454054    36.936713    40.393792
O     51.873407    37.940200    38.620880
H     52.641991    38.419330    39.018976
C     49.877550    36.795377    38.862563
H     49.516569    37.390370    38.012251
H     50.265575    35.857308    38.451984
H     49.014579    36.553482    39.484977
Mg    56.105244    38.630965    42.816077
O     57.967688    38.272483    42.060351
H     57.971950    37.332490    41.747564
H     58.023723    38.772477    41.199990
H     52.247000    40.514000    36.057000
H     59.245000    39.699000    45.553000
H     48.336000    33.234000    42.783000
H     50.547000    38.485000    40.081000
78
frame=21 E_kcal=-1503.4744
C     52.209637    36.627898    48.273585
C     53.653758    36.798429    47.776054
C     53.920613    38.077392    46.962799
C     52.640423    38.878412    46.649935
C     52.801750    39.710688    45.361043
C     51.119945    37.114205    47.299580
O     50.718270    35.975947    46.581733
O     52.040739    37.314746    49.491739
O     53.975634    35.755234    46.873755
O     54.733074    38.920132    47.741440
O     51.573879    38.010621    46.304537
O     53.582219    38.989829    44.450741
H     52.011642    35.558977    48.547583
H     54.357026    36.738870    48.644877
H     54.484701    37.781822    46.034635
H     52.332604    39.501463    47.516118
H     51.829532    39.834397    44.838836
H     53.246042    40.699067    45.571421
H     50.248593    37.591619    47.798204
H     49.970711    36.183650    45.968084
H     52.418547    38.227549    49.443146
H     53.831162    34.867061    47.276532
H     55.589206    39.146554    47.238362
H     54.545944    39.022469    44.719313
P     54.131348    38.909583    41.433926
O     52.695972    39.080235    41.125023
O     55.003979    40.067605    41.931285
O     54.487187    37.607513    42.193628
P     55.742011    38.541684    38.788745
O     57.132418    38.476432    39.328254
O     55.365963    37.627078    37.674103
O     54.564419    38.490304    39.879421
P     55.205194    41.399740    37.682262
O     55.022933    42.594031    38.592852
O     56.310641    41.502419    36.661269
O     55.175871    40.095649    38.624571
O     53.746404    41.418620    36.922737
C     53.341000    40.484000    35.919000
H     53.623116    40.853910    34.926399
H     53.673578    39.445809    36.041534
C     58.586000    39.405000    44.728000
H     58.588459    40.175484    43.942715
H     58.946706    38.465929    44.279496
C     57.226091    39.229537    45.371171
O     56.247176    38.738220    44.722749
O     57.059042    39.530583    46.565757
C     49.276000    33.777000    42.633000
H     50.084180    33.086655    42.903587
H     49.357428    33.974087    41.556354
C     49.347238    35.069413    43.446496
H     48.440042    35.678067    43.249817
H     49.304402    34.832993    44.527154
C     50.593605    35.910772    43.127252
H     50.650147    36.089304    42.031812
H     50.467564    36.919018    43.578526
C     51.887172    35.251429    43.616484
H     51.672996    34.457750    44.367065
H     52.428655    34.745377    42.782016
N     52.815159    36.269179    44.245750
H     52.302127    36.878776    44.912017
H     53.544262    35.797746    44.806075
H     53.289578    36.875315    43.533202
C     50.957000    37.559000    39.635000
H     51.419031    36.928006    40.410634
O     51.905561    37.919865    38.649325
H     52.651653    38.412811    39.073920
C     49.883501    36.804374    38.845194
H     49.530856    37.403313    37.995174
H     50.273874    35.866596    38.435831
H     49.017451    36.561157    39.463088
Mg    56.086994    38.626540    42.804467
O     57.968897    38.249035    42.104993
H     57.959131    37.326521    41.744412
H     58.086084    38.788470    41.277951
H     52.247000    40.514000    36.057000
H     59.245000    39.699000    45.553000
H     48.336000    33.234000    42.783000
H     50.547000    38.485000    40.081000
78
frame=22 E_kcal=-1502.2588
C     52.206233    36.632146    48.264941
C     53.650689    36.803431    47.767742
C     53.917193    38.082137    46.953954
C     52.635856    38.879409    46.635834
C     52.799258    39.706788    45.344092
C     51.116178    37.117798    47.291007
O     50.707781    35.977387    46.580375
O     52.036403    37.320705    49.481975
O     53.973417    35.760294    46.865874
O     54.725673    38.928699    47.733323
O     51.572644    38.007083    46.290934
O     53.579582    38.980009    44.438473
H     52.009288    35.563716    48.540722
H     54.353259    36.743908    48.636961
H     54.485397    37.787516    46.027822
H     52.324710    39.505157    47.498695
H     51.828311    39.830136    44.820308
H     53.244861    40.695027    45.550864
H     50.247492    37.600185    47.789421
H     49.968205    36.188173    45.958246
H     52.419124    38.231385    49.433627
H     53.838025    34.872249    47.272396
H     55.580340    39.158139    47.230680
H     54.543980    39.019655    44.703660
P     54.085650    38.903798    41.456805
O     52.645431    39.081480    41.171312
O     54.966209    40.061600    41.937510
O     54.461822    37.604836    42.209093
P     55.708538    38.549877    38.833781
O     57.079729    38.513508    39.423916
O     55.392960    37.630455    37.705270
O     54.486763    38.506037    39.882133
P     55.202457    41.395402    37.686607
O     55.021641    42.594954    38.589987
O     56.313343    41.488379    36.670641
O     55.152652    40.104965    38.643914
O     53.744067    41.416310    36.926020
C     53.341000    40.484000    35.919000
H     53.623212    40.856804    34.926682
H     53.672959    39.444025    36.037480
C     58.586000    39.405000    44.728000
H     58.595487    40.170065    43.937115
H     58.943268    38.460016    44.286993
C     57.222232    39.239542    45.362571
O     56.246240    38.747444    44.710605
O     57.049184    39.547396    46.554581
C     49.276000    33.777000    42.633000
H     50.083625    33.086553    42.904973
H     49.358290    33.972293    41.556074
C     49.347948    35.070754    43.444166
H     48.442856    35.681169    43.243655
H     49.301322    34.836118    44.525046
C     50.597345    35.908972    43.128487
H     50.653775    36.092233    42.033759
H     50.475334    36.915853    43.583493
C     51.889288    35.242791    43.613826
H     51.672538    34.447857    44.362416
H     52.427219    34.737642    42.776377
N     52.822163    36.254740    44.244394
H     52.312172    36.863839    44.913628
H     53.552696    35.779409    44.799848
H     53.296022    36.864142    43.532842
C     50.957000    37.559000    39.635000
H     51.396865    36.922384    40.421318
O     51.939239    37.903962    38.678755
H     52.677013    38.399011    39.122002
C     49.889704    36.811420    38.833391
H     49.540537    37.412428    37.984598
H     50.278546    35.872366    38.425558
H     49.021102    36.568041    39.449201
Mg    56.079110    38.633546    42.789956
O     57.977199    38.224947    42.143255
H     57.962207    37.319173    41.743155
H     58.152898    38.794745    41.349752
H     52.247000    40.514000    36.057000
H     59.245000    39.699000    45.553000
H     48.336000    33.234000    42.783000
H     50.547000    38.485000    40.081000
78
frame=23 E_kcal=-1500.8348
C     52.203188    36.636299    48.255169
C     53.647875    36.808328    47.757706
C     53.913906    38.087171    46.943743
C     52.631337    38.880187    46.619889
C     52.796893    39.702778    45.325196
C     51.112280    37.121495    47.281750
O     50.696941    35.979055    46.578315
O     52.034121    37.326670    49.471518
O     53.970573    35.764033    46.857562
O     54.717848    38.936298    47.725689
O     51.570795    38.003899    46.276747
O     53.576615    38.969311    44.424378
H     52.006560    35.568129    48.532471
H     54.349958    36.749204    48.627406
H     54.487330    37.794625    46.020187
H     52.316681    39.509100    47.479235
H     51.826617    39.829081    44.800344
H     53.244788    40.690427    45.530316
H     50.246775    37.610337    47.779680
H     49.964710    36.191810    45.948236
H     52.420773    38.235546    49.421507
H     53.846024    34.876640    47.269108
H     55.571822    39.170778    47.222141
H     54.543144    39.022521    44.681754
P     54.040660    38.904294    41.483961
O     52.598846    39.088994    41.211806
O     54.916957    40.064763    41.967381
O     54.446546    37.606031    42.221465
P     55.686218    38.558188    38.886454
O     57.033064    38.549063    39.534610
O     55.423537    37.629294    37.753012
O     54.424848    38.509836    39.895669
P     55.201037    41.392546    37.693454
O     55.016526    42.602926    38.579771
O     56.314423    41.486921    36.680254
O     55.141836    40.110598    38.659466
O     53.745706    41.408126    36.930231
C     53.341000    40.484000    35.919000
H     53.623713    40.860503    34.929217
H     53.673156    39.444744    36.034762
C     58.586000    39.405000    44.728000
H     58.603018    40.164293    43.932110
H     58.938896    38.454949    44.295271
C     57.216596    39.248905    45.353748
O     56.245087    38.756985    44.695831
O     57.035746    39.565166    46.543259
C     49.276000    33.777000    42.633000
H     50.083076    33.086452    42.906616
H     49.359339    33.970498    41.555797
C     49.348425    35.072184    43.441737
H     48.445763    35.684504    43.236953
H     49.297477    34.839265    44.522762
C     50.601300    35.906922    43.129328
H     50.658332    36.095558    42.035276
H     50.483542    36.912092    43.589517
C     51.891107    35.233807    43.610983
H     51.671654    34.437595    44.357723
H     52.425350    34.728855    42.771351
N     52.829143    36.239258    44.243582
H     52.323082    36.848011    44.915606
H     53.560063    35.759261    44.793933
H     53.304401    36.850827    43.533476
C     50.957000    37.559000    39.635000
H     51.384703    36.919738    40.426760
O     51.963843    37.896807    38.699596
H     52.703149    38.376774    39.149101
C     49.894653    36.816831    38.824661
H     49.546976    37.419953    37.977339
H     50.280984    35.876006    38.418478
H     49.023208    36.573623    39.438402
Mg    56.081309    38.642208    42.770291
O     57.997661    38.199520    42.176901
H     57.978008    37.309831    41.741673
H     58.220678    38.793095    41.416603
H     52.247000    40.514000    36.057000
H     59.245000    39.699000    45.553000
H     48.336000    33.234000    42.783000
H     50.547000    38.485000    40.081000
78
frame=24 E_kcal=-1499.7023
C     52.200890    36.640768    48.244371
C     53.645175    36.812322    47.746321
C     53.910076    38.091146    46.932252
C     52.627227    38.881060    46.602881
C     52.795299    39.700208    45.306269
C     51.109347    37.126156    47.271490
O     50.687116    35.981463    46.575928
O     52.034933    37.332930    49.460367
O     53.968805    35.765929    46.849313
O     54.709072    38.942699    47.717556
O     51.569458    38.000926    46.260364
O     53.574262    38.961701    44.409131
H     52.003997    35.572606    48.521405
H     54.347529    36.756629    48.616129
H     54.488338    37.800601    46.011247
H     52.309678    39.512662    47.458983
H     51.825634    39.827971    44.781135
H     53.246450    40.686266    45.509776
H     50.247331    37.620727    47.769800
H     49.960737    36.195294    45.939480
H     52.423263    38.241320    49.408379
H     53.854472    34.880156    47.266798
H     55.560470    39.183187    47.213965
H     54.542488    39.029076    44.656682
P     54.004483    38.918541    41.509805
O     52.560946    39.085929    41.246285
O     54.870153    40.078801    42.017601
O     54.439012    37.616881    42.225975
P     55.671576    38.573272    38.941940
O     56.986288    38.565099    39.654221
O     55.459394    37.617868    37.819057
O     54.381697    38.517619    39.917234
P     55.201911    41.397604    37.698097
O     55.006209    42.614181    38.574944
O     56.319763    41.485989    36.688886
O     55.130523    40.123375    38.679925
O     53.743899    41.402526    36.937639
C     53.341000    40.484000    35.919000
H     53.625669    40.866435    34.931454
H     53.673737    39.443651    36.030551
C     58.586000    39.405000    44.728000
H     58.613023    40.159962    43.928185
H     58.937428    38.450019    44.303066
C     57.211486    39.258991    45.341956
O     56.245115    38.768155    44.676112
O     57.022053    39.580916    46.529317
C     49.276000    33.777000    42.633000
H     50.082531    33.086516    42.908480
H     49.360503    33.968585    41.555560
C     49.348844    35.073510    43.439626
H     48.448861    35.688055    43.229823
H     49.293186    34.842710    44.520887
C     50.605236    35.904260    43.130433
H     50.663661    36.098657    42.037509
H     50.492113    36.907745    43.595931
C     51.892326    35.224418    43.608403
H     51.669992    34.427106    44.353000
H     52.423005    34.719065    42.767096
N     52.835858    36.223328    44.242907
H     52.334215    36.831305    44.918921
H     53.564903    35.736325    44.789161
H     53.312810    36.837269    43.534238
C     50.957000    37.559000    39.635000
H     51.377427    36.917086    40.428971
O     51.976292    37.893582    38.710241
H     52.725420    38.351715    39.160919
C     49.897623    36.821040    38.817977
H     49.553100    37.425816    37.970968
H     50.283220    35.879975    38.412178
H     49.023443    36.577518    39.428462
Mg    56.088747    38.641057    42.745218
O     58.023961    38.176276    42.202915
H     58.001121    37.300782    41.740934
H     58.287966    38.786255    41.471118
H     52.247000    40.514000    36.057000
H     59.245000    39.699000    45.553000
H     48.336000    33.234000    42.783000
H     50.547000    38.485000    40.081000
78
frame=25 E_kcal=-1498.5353
C     52.200388    36.646060    48.232331
C     53.644486    36.816511    47.734107
C     53.907297    38.094401    46.917970
C     52.624330    38.882272    46.585160
C     52.795724    39.699460    45.287530
C     51.107752    37.131566    47.260862
O     50.678688    35.984885    46.573112
O     52.036746    37.339150    49.448102
O     53.969343    35.766907    46.841537
O     54.699299    38.949677    47.705886
O     51.569351    37.998352    46.243374
O     53.573636    38.957424    44.392553
H     52.001984    35.578905    48.509553
H     54.346497    36.764968    48.604687
H     54.487828    37.804058    45.997946
H     52.303793    39.514854    47.439510
H     51.825424    39.825875    44.763730
H     53.248034    40.685196    45.490353
H     50.249315    37.631660    47.759573
H     49.956063    36.199173    45.932575
H     52.426007    38.246935    49.394377
H     53.862959    34.882963    47.265177
H     55.550161    39.194140    47.203099
H     54.544603    39.035827    44.631095
P     53.973309    38.933483    41.548860
O     52.526327    39.075782    41.278576
O     54.835932    40.090213    42.064627
O     54.430050    37.624811    42.231639
P     55.658759    38.587486    38.997437
O     56.941492    38.577033    39.769607
O     55.501232    37.608962    37.887362
O     54.339914    38.569931    39.935967
P     55.195926    41.393652    37.709960
O     54.997734    42.618476    38.577467
O     56.318143    41.475292    36.708565
O     55.125662    40.129183    38.700620
O     53.741892    41.397483    36.943133
C     53.341000    40.484000    35.919000
H     53.627440    40.873295    34.935213
H     53.673804    39.444199    36.023843
C     58.586000    39.405000    44.728000
H     58.625902    40.156650    43.925574
H     58.938832    38.447617    44.310592
C     57.205373    39.266563    45.326983
O     56.245341    38.781212    44.650173
O     57.005711    39.592478    46.511282
C     49.276000    33.777000    42.633000
H     50.081982    33.086556    42.910363
H     49.361683    33.966673    41.555299
C     49.349266    35.075053    43.437264
H     48.451676    35.691580    43.222673
H     49.288627    34.846484    44.518555
C     50.609014    35.902026    43.132199
H     50.667928    36.101026    42.040404
H     50.500130    36.904276    43.602272
C     51.893127    35.213980    43.606440
H     51.667369    34.415877    44.349310
H     52.420532    34.708322    42.762851
N     52.842725    36.206168    44.242837
H     52.344303    36.814072    44.920729
H     53.570625    35.712859    44.785078
H     53.319736    36.822677    43.536421
C     50.957000    37.559000    39.635000
H     51.371959    36.913412    40.428995
O     51.981479    37.895238    38.715413
H     52.743875    38.323054    39.172522
C     49.899781    36.824362    38.811955
H     49.560589    37.430785    37.964167
H     50.286731    35.884468    38.404772
H     49.022384    36.580231    39.418137
Mg    56.100960    38.642511    42.716178
O     58.050714    38.156992    42.220753
H     58.027000    37.291890    41.741010
H     58.352317    38.775950    41.510873
H     52.247000    40.514000    36.057000
H     59.245000    39.699000    45.553000
H     48.336000    33.234000    42.783000
H     50.547000    38.485000    40.081000
78
frame=26 E_kcal=-1496.9139
C     52.200744    36.651547    48.219927
C     53.645232    36.821348    47.721496
C     53.905603    38.096778    46.900618
C     52.622333    38.882694    46.565556
C     52.795551    39.699588    45.268214
C     51.107276    37.137649    47.248653
O     50.670833    35.989305    46.568856
O     52.038060    37.346420    49.435123
O     53.973308    35.768150    46.834535
O     54.691627    38.956583    47.688792
O     51.568900    37.996827    46.224504
O     53.573692    38.956425    44.374441
H     52.001885    35.584646    48.498566
H     54.347208    36.774008    48.592302
H     54.486744    37.806991    45.980897
H     52.300723    39.515163    47.419313
H     51.824914    39.826475    44.744950
H     53.246753    40.685895    45.471335
H     50.253541    37.644997    47.747787
H     49.949847    36.203718    45.926486
H     52.429391    38.253229    49.379377
H     53.872029    34.885893    47.263438
H     55.542539    39.203952    47.186210
H     54.546819    39.040578    44.606518
P     53.941246    38.937683    41.593759
O     52.495110    39.073933    41.319649
O     54.805384    40.096297    42.097745
O     54.420966    37.628749    42.249554
P     55.647190    38.590298    39.058818
O     56.902658    38.600703    39.879320
O     55.538927    37.608892    37.946908
O     54.301852    38.632905    39.960369
P     55.188426    41.384782    37.730484
O     54.986400    42.616937    38.588245
O     56.315818    41.454774    36.730377
O     55.116167    40.125286    38.723629
O     53.740324    41.392225    36.949374
C     53.341000    40.484000    35.919000
H     53.627930    40.881149    34.938169
H     53.675404    39.443536    36.016316
C     58.586000    39.405000    44.728000
H     58.638497    40.153908    43.922998
H     58.941379    38.444915    44.316513
C     57.199259    39.273202    45.308448
O     56.248372    38.792293    44.619712
O     56.992396    39.602466    46.490895
C     49.276000    33.777000    42.633000
H     50.081398    33.086636    42.912209
H     49.362859    33.964749    41.555099
C     49.348986    35.076345    43.435088
H     48.454014    35.695206    43.215093
H     49.283182    34.849962    44.516800
C     50.612188    35.899173    43.133609
H     50.671713    36.103453    42.042679
H     50.508787    36.899468    43.608520
C     51.893153    35.202540    43.605068
H     51.663907    34.403715    44.345624
H     52.416344    34.696455    42.759363
N     52.849016    36.187401    44.242976
H     52.353157    36.794784    44.923450
H     53.576315    35.689403    44.781050
H     53.328418    36.805162    43.538122
C     50.957000    37.559000    39.635000
H     51.368878    36.909866    40.427393
O     51.983823    37.901324    38.721237
H     52.752268    38.302443    39.188590
C     49.903792    36.827736    38.803911
H     49.568819    37.437155    37.956412
H     50.291526    35.888024    38.396660
H     49.023341    36.582860    39.404537
Mg    56.118884    38.652455    42.677872
O     58.080668    38.141474    42.233477
H     58.053543    37.283115    41.742458
H     58.412045    38.761900    41.539080
H     52.247000    40.514000    36.057000
H     59.245000    39.699000    45.553000
H     48.336000    33.234000    42.783000
H     50.547000    38.485000    40.081000
78
frame=27 E_kcal=-1495.8952
C     52.202233    36.657430    48.205663
C     53.646600    36.826720    47.707235
C     53.904193    38.098967    46.880815
C     52.620771    38.883344    46.543290
C     52.794307    39.700543    45.245858
C     51.107274    37.142918    47.235451
O     50.662137    35.993518    46.563469
O     52.039651    37.355200    49.419428
O     53.979116    35.769488    46.826958
O     54.687603    38.961151    47.668680
O     51.570412    37.993458    46.204509
O     53.574287    38.958076    44.353022
H     52.004418    35.591384    48.487233
H     54.348079    36.786687    48.579110
H     54.486694    37.808142    45.962802
H     52.300208    39.515653    47.397658
H     51.823978    39.830547    44.722686
H     53.243046    40.687092    45.452577
H     50.259110    37.659520    47.734943
H     49.941959    36.209416    45.920490
H     52.433587    38.260773    49.363456
H     53.882018    34.889378    47.260815
H     55.537344    39.212431    47.161075
H     54.549359    39.043018    44.584363
P     53.909457    38.944971    41.638080
O     52.465090    39.080993    41.372152
O     54.780146    40.105735    42.128152
O     54.413596    37.634827    42.272965
P     55.633484    38.601801    39.118908
O     56.861488    38.627763    39.982906
O     55.566651    37.610871    38.012174
O     54.274415    38.647512    39.998498
P     55.180490    41.373617    37.746937
O     54.972099    42.609501    38.595112
O     56.317784    41.435114    36.754443
O     55.089399    40.124087    38.751805
O     53.738210    41.384033    36.956969
C     53.341000    40.484000    35.919000
H     53.627722    40.889641    34.941931
H     53.678272    39.444506    36.009779
C     58.586000    39.405000    44.728000
H     58.648468    40.150006    43.919746
H     58.941524    38.442942    44.321642
C     57.193604    39.278848    45.289421
O     56.250697    38.802321    44.589763
O     56.982101    39.612723    46.470881
C     49.276000    33.777000    42.633000
H     50.081018    33.086878    42.914062
H     49.364104    33.963082    41.554885
C     49.348143    35.077301    43.432798
H     48.456026    35.698122    43.207581
H     49.276405    34.853267    44.514564
C     50.615280    35.895274    43.135362
H     50.676053    36.104735    42.045553
H     50.517731    36.893566    43.615171
C     51.892736    35.189264    43.603041
H     51.658755    34.390223    44.341733
H     52.411137    34.681806    42.755355
N     52.854564    36.166687    44.243024
H     52.362468    36.774318    44.926505
H     53.579204    35.663354    44.778611
H     53.337197    36.785447    43.540292
C     50.957000    37.559000    39.635000
H     51.367190    36.907119    40.425819
O     51.986790    37.908340    38.726244
H     52.756628    38.298607    39.203077
C     49.908609    36.831288    38.794800
H     49.580297    37.444710    37.947169
H     50.298602    35.892628    38.386810
H     49.023983    36.584409    39.387963
Mg    56.138326    38.665435    42.633074
O     58.114798    38.128172    42.240546
H     58.081581    37.272075    41.746214
H     58.471221    38.746684    41.557348
H     52.247000    40.514000    36.057000
H     59.245000    39.699000    45.553000
H     48.336000    33.234000    42.783000
H     50.547000    38.485000    40.081000
78
frame=28 E_kcal=-1495.6898
C     52.204242    36.663509    48.191147
C     53.648275    36.832872    47.692554
C     53.905697    38.101228    46.860174
C     52.621387    38.883540    46.521287
C     52.794287    39.702116    45.225260
C     51.108463    37.148162    47.221535
O     50.651921    35.997433    46.559996
O     52.042250    37.363721    49.403915
O     53.985161    35.771282    46.819480
O     54.687654    38.965824    47.645601
O     51.574052    37.988999    46.183402
O     53.575301    38.961492    44.331145
H     52.007778    35.597885    48.474824
H     54.347571    36.801320    48.566218
H     54.487847    37.805967    45.942808
H     52.298333    39.517417    47.373700
H     51.824447    39.831740    44.701859
H     53.241614    40.689009    45.434202
H     50.264600    37.669963    47.722339
H     49.933706    36.215095    45.915310
H     52.438734    38.268309    49.347035
H     53.890333    34.893711    47.258428
H     55.537219    39.219099    47.134830
H     54.551286    39.044452    44.564880
P     53.884309    38.958565    41.687745
O     52.437402    39.090970    41.430173
O     54.762741    40.115581    42.155750
O     54.407418    37.640574    42.298599
P     55.613526    38.609468    39.175749
O     56.826430    38.654499    40.065295
O     55.580777    37.607452    38.080776
O     54.247176    38.649582    40.038131
P     55.172722    41.365622    37.762898
O     54.958448    42.613659    38.595779
O     56.320102    41.416460    36.784767
O     55.066552    40.120338    38.771323
O     53.733876    41.377876    36.963726
C     53.341000    40.484000    35.919000
H     53.628500    40.897078    34.945173
H     53.679186    39.444167    36.002496
C     58.586000    39.405000    44.728000
H     58.654893    40.145743    43.915806
H     58.939986    38.440132    44.325595
C     57.188499    39.284202    45.275826
O     56.252488    38.812718    44.564043
O     56.965401    39.620625    46.455418
C     49.276000    33.777000    42.633000
H     50.080721    33.087142    42.915505
H     49.365134    33.961598    41.554736
C     49.346921    35.078368    43.431015
H     48.457167    35.700674    43.200781
H     49.269632    34.855950    44.512821
C     50.617979    35.891573    43.137339
H     50.680591    36.104516    42.048207
H     50.525606    36.888157    43.621883
C     51.891451    35.175484    43.601557
H     51.652667    34.375677    44.338220
H     52.406254    34.667189    42.752585
N     52.859011    36.145155    44.243774
H     52.369189    36.755669    44.926344
H     53.580122    35.635087    44.778718
H     53.343332    36.765717    43.543993
C     50.957000    37.559000    39.635000
H     51.364710    36.905703    40.425641
O     51.988593    37.911392    38.729991
H     52.759499    38.293341    39.213373
C     49.913459    36.834404    38.786252
H     49.594806    37.451166    37.937520
H     50.307923    35.899179    38.375277
H     49.023794    36.585035    39.370208
Mg    56.155569    38.677082    42.596195
O     58.143893    38.119734    42.241187
H     58.111519    37.261959    41.751188
H     58.527552    38.728384    41.564580
H     52.247000    40.514000    36.057000
H     59.245000    39.699000    45.553000
H     48.336000    33.234000    42.783000
H     50.547000    38.485000    40.081000
78
frame=29 E_kcal=-1494.8400
C     52.206628    36.669460    48.177091
C     53.651298    36.839251    47.679452
C     53.907540    38.103605    46.839870
C     52.622045    38.882908    46.499502
C     52.795828    39.702646    45.204587
C     51.109195    37.153064    47.208657
O     50.644209    36.000490    46.556041
O     52.045900    37.370732    49.389518
O     53.990589    35.772808    46.813549
O     54.688221    38.971994    47.621088
O     51.577173    37.984059    46.163239
O     53.578315    38.963920    44.309588
H     52.010057    35.603954    48.460384
H     54.349437    36.813279    48.554863
H     54.487401    37.805028    45.922241
H     52.295369    39.516166    47.350608
H     51.823147    39.829656    44.686464
H     53.244071    40.689375    45.414778
H     50.269884    37.683104    47.709188
H     49.926334    36.219154    45.911028
H     52.444341    38.274498    49.330784
H     53.895985    34.898007    47.257866
H     55.540662    39.225118    47.111874
H     54.556364    39.047215    44.546554
P     53.861887    38.970902    41.732506
O     52.413909    39.102768    41.489502
O     54.751877    40.125760    42.181633
O     54.402328    37.651183    42.327545
P     55.595714    38.614489    39.221672
O     56.799972    38.681441    40.125475
O     55.580011    37.592401    38.144517
O     54.227224    38.659661    40.076712
P     55.165987    41.359860    37.781460
O     54.944169    42.619808    38.594674
O     56.325602    41.396331    36.815728
O     55.043052    40.120597    38.798473
O     53.734098    41.371657    36.968758
C     53.341000    40.484000    35.919000
H     53.632240    40.902934    34.948966
H     53.677893    39.443637    35.997090
C     58.586000    39.405000    44.728000
H     58.659795    40.142537    43.912931
H     58.938173    38.437338    44.330142
C     57.184656    39.289201    45.262020
O     56.255722    38.821600    44.541504
O     56.958044    39.627616    46.441244
C     49.276000    33.777000    42.633000
H     50.080392    33.087262    42.916647
H     49.365732    33.960337    41.554514
C     49.345283    35.078878    43.429696
H     48.458429    35.703330    43.195019
H     49.264093    34.858403    44.511631
C     50.619746    35.886867    43.138983
H     50.684047    36.104384    42.051069
H     50.533003    36.882061    43.626848
C     51.888635    35.162048    43.601263
H     51.645624    34.360469    44.334972
H     52.400838    34.654081    42.751186
N     52.860009    36.125754    44.246145
H     52.371471    36.737112    44.929427
H     53.578301    35.611250    44.779872
H     53.351166    36.742464    43.547357
C     50.957000    37.559000    39.635000
H     51.360035    36.904913    40.427179
O     51.992075    37.909342    38.733176
H     52.761140    38.285861    39.218405
C     49.919313    36.837063    38.776078
H     49.606442    37.457575    37.927221
H     50.317880    35.902988    38.365111
H     49.025477    36.585394    39.351944
Mg    56.170986    38.686116    42.560425
O     58.170982    38.113978    42.238459
H     58.139534    37.252337    41.757808
H     58.575522    38.711564    41.565366
H     52.247000    40.514000    36.057000
H     59.245000    39.699000    45.553000
H     48.336000    33.234000    42.783000
H     50.547000    38.485000    40.081000
78
frame=30 E_kcal=-1494.4035
C     52.209390    36.675266    48.164093
C     53.654580    36.844023    47.667103
C     53.909732    38.105658    46.823454
C     52.623309    38.882207    46.481518
C     52.796016    39.700758    45.186561
C     51.111413    37.159646    47.195742
O     50.640162    36.004854    46.552381
O     52.049368    37.376277    49.376651
O     53.996344    35.772158    46.808827
O     54.689061    38.977632    47.600993
O     51.582163    37.980050    46.143606
O     53.580614    38.963026    44.290715
H     52.012296    35.609494    48.446144
H     54.352897    36.822555    48.542353
H     54.486805    37.806323    45.905010
H     52.294070    39.512902    47.333769
H     51.822596    39.830098    44.670221
H     53.244588    40.686388    45.395399
H     50.277264    37.699571    47.693961
H     49.920967    36.219790    45.907881
H     52.448896    38.279659    49.317814
H     53.899207    34.900459    47.259381
H     55.542067    39.230809    47.088830
H     54.560843    39.052545    44.526579
P     53.844103    38.978321    41.777750
O     52.396829    39.118593    41.536512
O     54.744437    40.139617    42.200345
O     54.400223    37.658637    42.344410
P     55.573503    38.618154    39.265125
O     56.781596    38.710261    40.168307
O     55.566772    37.581765    38.204319
O     54.202991    38.677191    40.110113
P     55.157398    41.347571    37.800266
O     54.933656    42.616159    38.599771
O     56.327120    41.373314    36.847812
O     55.029401    40.121025    38.827996
O     53.735840    41.368336    36.970184
C     53.341000    40.484000    35.919000
H     53.636663    40.905597    34.951774
H     53.675670    39.443014    35.996436
C     58.586000    39.405000    44.728000
H     58.669216    40.139960    43.911421
H     58.940052    38.436426    44.334049
C     57.181614    39.291507    45.250954
O     56.259940    38.828798    44.521116
O     56.951270    39.631080    46.430649
C     49.276000    33.777000    42.633000
H     50.080069    33.087310    42.917641
H     49.366119    33.959612    41.554509
C     49.343960    35.079495    43.428714
H     48.458790    35.704977    43.190961
H     49.258758    34.859930    44.510448
C     50.621403    35.883501    43.140410
H     50.686209    36.103342    42.052867
H     50.538905    36.878124    43.631121
C     51.886087    35.149724    43.600897
H     51.637908    34.347540    44.332191
H     52.395832    34.641295    42.749318
N     52.860746    36.106562    44.250335
H     52.373282    36.719999    44.931865
H     53.574991    35.588561    44.786833
H     53.354551    36.722964    43.553125
C     50.957000    37.559000    39.635000
H     51.352561    36.902986    40.429735
O     52.000241    37.906792    38.741484
H     52.772448    38.282997    39.230668
C     49.924395    36.839548    38.768515
H     49.616102    37.460815    37.918990
H     50.325986    35.906947    38.357822
H     49.026684    36.584338    39.336764
Mg    56.188559    38.693841    42.519526
O     58.198192    38.108770    42.237325
H     58.161240    37.243826    41.764529
H     58.611763    38.698394    41.562225
H     52.247000    40.514000    36.057000
H     59.245000    39.699000    45.553000
H     48.336000    33.234000    42.783000
H     50.547000    38.485000    40.081000
78
frame=31 E_kcal=-1494.3326
C     52.212515    36.680330    48.153311
C     53.657764    36.847160    47.656131
C     53.912932    38.106307    46.808189
C     52.626386    38.882835    46.464073
C     52.797567    39.702758    45.169479
C     51.115117    37.164394    47.183956
O     50.637259    36.006743    46.550953
O     52.051592    37.380335    49.366157
O     54.000236    35.769803    46.804979
O     54.689361    38.979629    47.586172
O     51.589425    37.975498    46.125516
O     53.580700    38.959924    44.273877
H     52.014309    35.614772    48.435216
H     54.355788    36.830148    48.531920
H     54.492931    37.805734    45.892118
H     52.296115    39.512575    47.317709
H     51.824221    39.830467    44.652217
H     53.244292    40.689991    45.380219
H     50.285577    37.713804    47.678862
H     49.917502    36.219025    45.906204
H     52.451594    38.283514    49.310140
H     53.901304    34.900827    47.261059
H     55.541037    39.236261    47.069710
H     54.563519    39.056883    44.506605
P     53.827314    38.989121    41.822497
O     52.379945    39.137396    41.578423
O     54.743840    40.149540    42.217613
O     54.399104    37.662605    42.351204
P     55.557347    38.625002    39.302660
O     56.763719    38.728874    40.213977
O     55.550942    37.575490    38.252534
O     54.190407    38.684720    40.148171
P     55.152196    41.342579    37.813082
O     54.924154    42.607801    38.616786
O     56.329508    41.348961    36.868635
O     55.015246    40.120068    38.845726
O     53.736512    41.369270    36.971830
C     53.341000    40.484000    35.919000
H     53.638038    40.902560    34.951081
H     53.673526    39.442025    35.998304
C     58.586000    39.405000    44.728000
H     58.678891    40.138047    43.910178
H     58.944023    38.436398    44.335883
C     57.176463    39.292190    45.233774
O     56.260434    38.837506    44.492855
O     56.935070    39.625089    46.413982
C     49.276000    33.777000    42.633000
H     50.079824    33.087453    42.918403
H     49.366774    33.959248    41.554388
C     49.342385    35.079673    43.428280
H     48.458415    35.705750    43.188180
H     49.254324    34.860781    44.509890
C     50.622252    35.880460    43.141566
H     50.688577    36.101790    42.054479
H     50.544099    36.874663    43.634036
C     51.882948    35.140173    43.601132
H     51.629894    34.336649    44.329277
H     52.391215    34.631073    42.749464
N     52.861163    36.090211    44.254568
H     52.373892    36.706101    44.933939
H     53.569287    35.567365    44.794319
H     53.358798    36.707713    43.561151
C     50.957000    37.559000    39.635000
H     51.343372    36.900833    40.432750
O     52.004825    37.909872    38.751685
H     52.769064    38.274961    39.257960
C     49.927912    36.840694    38.763213
H     49.623867    37.462799    37.912729
H     50.332796    35.909024    38.352457
H     49.028532    36.584393    39.329234
Mg    56.201534    38.708778    42.489759
O     58.219149    38.104447    42.236989
H     58.180427    37.238054    41.767445
H     58.637364    38.687121    41.558873
H     52.247000    40.514000    36.057000
H     59.245000    39.699000    45.553000
H     48.336000    33.234000    42.783000
H     50.547000    38.485000    40.081000
78
frame=32 E_kcal=-1493.1552
C     52.214606    36.683892    48.146117
C     53.659628    36.849400    47.648335
C     53.917264    38.105055    46.795172
C     52.631919    38.880089    46.444738
C     52.798884    39.704250    45.152957
C     51.118672    37.168109    47.175178
O     50.636104    36.008334    46.549909
O     52.052755    37.382339    49.359526
O     54.001298    35.768168    46.801936
O     54.687703    38.981404    47.575666
O     51.595539    37.970329    46.110480
O     53.581562    38.968081    44.252808
H     52.016127    35.618444    48.429007
H     54.357009    36.836433    48.524687
H     54.503413    37.802564    45.883691
H     52.301620    39.513537    47.294260
H     51.823025    39.833418    44.640518
H     53.244944    40.690773    45.363768
H     50.291825    37.722978    47.667300
H     49.915429    36.218548    45.905759
H     52.452969    38.285263    49.305912
H     53.903004    34.901087    47.261498
H     55.540513    39.239791    47.059181
H     54.565605    39.055216    44.491433
P     53.815857    39.001996    41.855823
O     52.370101    39.159120    41.632210
O     54.734075    40.155985    42.243435
O     54.392525    37.669495    42.376804
P     55.541714    38.630454    39.331867
O     56.752099    38.726066    40.246902
O     55.556982    37.575955    38.289575
O     54.178337    38.686566    40.178431
P     55.147140    41.331588    37.820249
O     54.922212    42.597116    38.623315
O     56.326917    41.342905    36.880918
O     54.989144    40.113659    38.856569
O     53.740186    41.370778    36.967352
C     53.341000    40.484000    35.919000
H     53.637471    40.897768    34.949189
H     53.673795    39.442477    36.002798
C     58.586000    39.405000    44.728000
H     58.684059    40.137275    43.909441
H     58.946069    38.436829    44.337338
C     57.170974    39.291038    45.214340
O     56.262840    38.847156    44.459768
O     56.920363    39.617288    46.395129
C     49.276000    33.777000    42.633000
H     50.079763    33.087563    42.919008
H     49.367617    33.958886    41.554589
C     49.341033    35.079819    43.427945
H     48.457872    35.706468    43.186253
H     49.251596    34.861638    44.509547
C     50.622818    35.877939    43.142386
H     50.690239    36.100652    42.055788
H     50.546965    36.871998    43.635550
C     51.879931    35.132253    43.602074
H     51.623037    34.327802    44.328015
H     52.388110    34.623880    42.749456
N     52.859924    36.077636    44.258930
H     52.373299    36.696214    44.937198
H     53.563768    35.551245    44.800104
H     53.364714    36.691692    43.566646
C     50.957000    37.559000    39.635000
H     51.338871    36.899990    40.435072
O     52.012766    37.916240    38.765581
H     52.774038    38.273809    39.292928
C     49.932178    36.841927    38.759696
H     49.627227    37.463569    37.909907
H     50.336247    35.909654    38.350614
H     49.032701    36.586189    39.326217
Mg    56.202577    38.719505    42.451937
O     58.235194    38.100069    42.235814
H     58.194241    37.233399    41.768850
H     58.653361    38.681735    41.557006
H     52.247000    40.514000    36.057000
H     59.245000    39.699000    45.553000
H     48.336000    33.234000    42.783000
H     50.547000    38.485000    40.081000
78
frame=33 E_kcal=-1492.2190
C     52.215558    36.686164    48.142552
C     53.660417    36.851213    47.643851
C     53.920709    38.104245    46.786089
C     52.636563    38.876959    46.427334
C     52.798543    39.703776    45.136742
C     51.120729    37.169979    47.170142
O     50.636031    36.009138    46.548350
O     52.052858    37.383256    49.356642
O     54.001310    35.767758    46.799962
O     54.685872    38.982768    47.568933
O     51.599182    37.965738    46.100135
O     53.583546    38.976270    44.224830
H     52.017164    35.620206    48.425460
H     54.357353    36.839784    48.520655
H     54.512221    37.799626    45.879383
H     52.306467    39.514365    47.275336
H     51.816630    39.838744    44.637368
H     53.246160    40.689416    45.352106
H     50.295148    37.728301    47.660720
H     49.914282    36.219008    45.905250
H     52.453787    38.286037    49.304122
H     53.904367    34.901440    47.261240
H     55.541537    39.242014    47.055006
H     54.570967    39.051544    44.483985
P     53.794821    39.017791    41.933091
O     52.354477    39.168796    41.675277
O     54.730474    40.174615    42.263138
O     54.378932    37.673577    42.398490
P     55.526753    38.617920    39.353438
O     56.749710    38.717822    40.258456
O     55.585443    37.575420    38.299725
O     54.180822    38.695285    40.212133
P     55.143064    41.325219    37.827335
O     54.923437    42.599220    38.621548
O     56.323810    41.346832    36.885359
O     54.976019    40.097243    38.852294
O     53.740529    41.377785    36.961132
C     53.341000    40.484000    35.919000
H     53.636603    40.894783    34.947196
H     53.674306    39.443061    36.005732
C     58.586000    39.405000    44.728000
H     58.686191    40.136932    43.909587
H     58.947106    38.436452    44.338151
C     57.166474    39.290789    45.202145
O     56.265613    38.853358    44.436734
O     56.911430    39.612797    46.384088
C     49.276000    33.777000    42.633000
H     50.079585    33.087740    42.919729
H     49.368200    33.958429    41.554358
C     49.340290    35.079944    43.427441
H     48.457780    35.707096    43.184989
H     49.249939    34.862352    44.509142
C     50.622803    35.876802    43.142765
H     50.691070    36.099747    42.056279
H     50.547866    36.870535    43.636442
C     51.877822    35.127506    43.602671
H     51.619227    34.322801    44.327841
H     52.386338    34.619679    42.749797
N     52.859376    36.068985    44.261844
H     52.372621    36.689149    44.938520
H     53.561023    35.541512    44.804822
H     53.368129    36.677672    43.569457
C     50.957000    37.559000    39.635000
H     51.338096    36.900265    40.436040
O     52.021707    37.922420    38.776918
H     52.780244    38.275839    39.309613
C     49.934625    36.842683    38.758114
H     49.627740    37.463964    37.908811
H     50.337065    35.908998    38.350813
H     49.034721    36.587083    39.325875
Mg    56.207044    38.716838    42.403951
O     58.241912    38.099062    42.235528
H     58.200955    37.231565    41.769430
H     58.660896    38.680180    41.556450
H     52.247000    40.514000    36.057000
H     59.245000    39.699000    45.553000
H     48.336000    33.234000    42.783000
H     50.547000    38.485000    40.081000
78
frame=34 E_kcal=-1491.6644
C     52.216013    36.687463    48.140929
C     53.660791    36.852106    47.642220
C     53.922624    38.104073    46.782299
C     52.639192    38.875052    46.418568
C     52.796624    39.703595    45.128657
C     51.122009    37.170652    47.168239
O     50.635754    36.009520    46.547482
O     52.052591    37.383561    49.355336
O     54.001397    35.767991    46.798962
O     54.685441    38.983333    47.566287
O     51.600725    37.963479    46.095997
O     53.584592    38.981412    44.208351
H     52.017082    35.621500    48.423599
H     54.357430    36.840457    48.519336
H     54.515378    37.798897    45.877806
H     52.308743    39.513694    47.266657
H     51.811439    39.841170    44.635948
H     53.248032    40.687667    45.347623
H     50.296505    37.729997    47.658220
H     49.913793    36.219452    45.904604
H     52.454061    38.286102    49.303758
H     53.904927    34.902217    47.261274
H     55.542606    39.243020    47.053820
H     54.576723    39.049087    44.480873
P     53.774888    39.029630    42.003827
O     52.346479    39.174946    41.698736
O     54.730706    40.182169    42.273098
O     54.371330    37.674725    42.405666
P     55.522927    38.610446    39.357492
O     56.750322    38.713299    40.261628
O     55.605010    37.573150    38.297649
O     54.186750    38.697165    40.214425
P     55.141386    41.322120    37.830521
O     54.923845    42.601271    38.619669
O     56.322091    41.350713    36.886204
O     54.971991    40.087887    38.847046
O     53.741801    41.380796    36.957459
C     53.341000    40.484000    35.919000
H     53.636282    40.893944    34.946860
H     53.674864    39.443482    36.007067
C     58.586000    39.405000    44.728000
H     58.687119    40.137012    43.909362
H     58.946784    38.436803    44.338736
C     57.163810    39.289546    45.196650
O     56.264125    38.855785    44.427832
O     56.907164    39.611197    46.378782
C     49.276000    33.777000    42.633000
H     50.079504    33.087779    42.920436
H     49.368215    33.957865    41.554547
C     49.340157    35.080197    43.427041
H     48.457792    35.707453    43.184192
H     49.249148    34.862533    44.508944
C     50.622506    35.876161    43.143062
H     50.691448    36.099332    42.056292
H     50.548166    36.869955    43.636685
C     51.877287    35.125302    43.603000
H     51.617669    34.320902    44.327938
H     52.385238    34.617939    42.750070
N     52.859188    36.065427    44.263278
H     52.371826    36.686052    44.939241
H     53.560355    35.537885    44.806658
H     53.369748    36.671142    43.569936
C     50.957000    37.559000    39.635000
H     51.338101    36.900232    40.436052
O     52.024574    37.924510    38.780978
H     52.783974    38.277493    39.316414
C     49.935300    36.842848    38.758206
H     49.627916    37.463705    37.908864
H     50.336560    35.908492    38.351054
H     49.035454    36.587174    39.325790
Mg    56.209051    38.717008    42.378839
O     58.244692    38.098981    42.235885
H     58.202759    37.230954    41.769456
H     58.662782    38.680340    41.556437
H     52.247000    40.514000    36.057000
H     59.245000    39.699000    45.553000
H     48.336000    33.234000    42.783000
H     50.547000    38.485000    40.081000
78
frame=35 E_kcal=-1491.3590
C     52.216208    36.687662    48.140356
C     53.661080    36.852275    47.641632
C     53.923198    38.104179    46.781742
C     52.639864    38.874605    46.415775
C     52.796511    39.703976    45.126535
C     51.121820    37.170933    47.167216
O     50.635825    36.010101    46.547566
O     52.052537    37.383639    49.354761
O     54.001355    35.768528    46.798815
O     54.685272    38.983389    47.565780
O     51.601792    37.963324    46.094364
O     53.584648    38.982286    44.200829
H     52.016871    35.621518    48.423270
H     54.357685    36.840366    48.519290
H     54.515974    37.798903    45.876985
H     52.309186    39.513199    47.264999
H     51.810795    39.841091    44.635541
H     53.248615    40.687074    45.347061
H     50.296631    37.730033    47.657905
H     49.913578    36.219515    45.904460
H     52.454107    38.286154    49.303837
H     53.905021    34.902623    47.261448
H     55.542879    39.243225    47.053442
H     54.576713    39.049008    44.481132
P     53.767794    39.033815    42.030139
O     52.344736    39.176838    41.704673
O     54.730666    40.183587    42.275071
O     54.369311    37.675388    42.405771
P     55.521123    38.606604    39.359522
O     56.750609    38.712086    40.261267
O     55.612101    37.573176    38.296216
O     54.189289    38.697674    40.216224
P     55.141424    41.321434    37.831225
O     54.923770    42.602104    38.619200
O     56.321905    41.352445    36.885862
O     54.971229    40.084570    38.845131
O     53.741967    41.382050    36.956362
C     53.341000    40.484000    35.919000
H     53.636368    40.894029    34.946611
H     53.674999    39.443718    36.007393
C     58.586000    39.405000    44.728000
H     58.687282    40.136901    43.909515
H     58.946853    38.436293    44.338624
C     57.163292    39.289756    45.195300
O     56.264448    38.855875    44.424982
O     56.906003    39.610754    46.377407
C     49.276000    33.777000    42.633000
H     50.079389    33.087858    42.920753
H     49.368157    33.957634    41.554288
C     49.339826    35.080034    43.427123
H     48.457855    35.707528    43.183884
H     49.248928    34.862558    44.508742
C     50.623021    35.876111    43.143035
H     50.691577    36.099125    42.056579
H     50.548246    36.869922    43.636701
C     51.876629    35.124753    43.603131
H     51.617218    34.320382    44.328148
H     52.385090    34.617231    42.749699
N     52.859007    36.064445    44.263412
H     52.371919    36.685357    44.939304
H     53.560211    35.537297    44.807047
H     53.369919    36.669275    43.570644
C     50.957000    37.559000    39.635000
H     51.338060    36.900065    40.435978
O     52.025757    37.925588    38.782221
H     52.784670    38.277562    39.317341
C     49.935243    36.842549    38.758238
H     49.628178    37.463546    37.908988
H     50.336318    35.908326    38.350954
H     49.034974    36.586960    39.326078
Mg    56.209847    38.717167    42.370727
O     58.245191    38.098765    42.236433
H     58.203342    37.231321    41.769434
H     58.662799    38.680235    41.556200
H     52.247000    40.514000    36.057000
H     59.245000    39.699000    45.553000
H     48.336000    33.234000    42.783000
H     50.547000    38.485000    40.081000
78
frame=36 E_kcal=-1491.2438
C     52.215768    36.687815    48.140074
C     53.660776    36.852457    47.641918
C     53.923379    38.104330    46.781012
C     52.640564    38.874919    46.415064
C     52.796514    39.703203    45.125050
C     51.122611    37.171558    47.167114
O     50.635545    36.010000    46.547264
O     52.052617    37.383667    49.354361
O     54.001485    35.768245    46.798468
O     54.685154    38.983569    47.566081
O     51.601612    37.962788    46.093671
O     53.584502    38.982806    44.198720
H     52.016848    35.621360    48.423253
H     54.358006    36.840286    48.519521
H     54.516035    37.798960    45.876686
H     52.309205    39.513087    47.264866
H     51.811163    39.840918    44.635655
H     53.248958    40.687336    45.347181
H     50.296429    37.730071    47.657971
H     49.913602    36.219451    45.904498
H     52.454121    38.286136    49.303913
H     53.905044    34.902902    47.261492
H     55.543034    39.243260    47.053163
H     54.575820    39.049128    44.481417
P     53.763944    39.035200    42.038339
O     52.343410    39.177510    41.705929
O     54.731995    40.185739    42.275645
O     54.369524    37.673668    42.405760
P     55.519961    38.605400    39.359863
O     56.751854    38.711890    40.261767
O     55.614559    37.572514    38.294835
O     54.189895    38.698117    40.218193
P     55.141486    41.321216    37.831675
O     54.923700    42.602358    38.618966
O     56.321884    41.353028    36.885664
O     54.971089    40.083840    38.844163
O     53.742082    41.382852    36.956393
C     53.341000    40.484000    35.919000
H     53.636460    40.894149    34.946316
H     53.675019    39.443743    36.007454
C     58.586000    39.405000    44.728000
H     58.687285    40.136814    43.909654
H     58.947052    38.435775    44.338420
C     57.162812    39.289956    45.194533
O     56.265140    38.855757    44.423937
O     56.905732    39.610745    46.377553
C     49.276000    33.777000    42.633000
H     50.079335    33.087892    42.920858
H     49.368145    33.957587    41.554046
C     49.340391    35.080521    43.426789
H     48.457843    35.707547    43.183782
H     49.248845    34.862506    44.508884
C     50.622319    35.875804    43.143470
H     50.691633    36.099097    42.056454
H     50.548212    36.870065    43.636688
C     51.877136    35.123794    43.602814
H     51.617119    34.320542    44.328093
H     52.384816    34.617243    42.749949
N     52.858633    36.063750    44.263712
H     52.372157    36.685306    44.939296
H     53.560066    35.537337    44.806993
H     53.369994    36.668838    43.570918
C     50.957000    37.559000    39.635000
H     51.338042    36.900013    40.435916
O     52.024992    37.925564    38.782464
H     52.785170    38.277657    39.317623
C     49.934806    36.842476    38.758612
H     49.628297    37.463555    37.908933
H     50.336358    35.908073    38.350781
H     49.034983    36.586934    39.326059
Mg    56.210427    38.717154    42.368274
O     58.245353    38.099268    42.236681
H     58.203573    37.231191    41.769210
H     58.662561    38.679935    41.556266
H     52.247000    40.514000    36.057000
H     59.245000    39.699000    45.553000
H     48.336000    33.234000    42.783000
H     50.547000    38.485000    40.081000
78
frame=37 E_kcal=-1491.2438
C     52.215768    36.687815    48.140074
C     53.660776    36.852457    47.641918
C     53.923379    38.104330    46.781012
C     52.640564    38.874919    46.415064
C     52.796514    39.703203    45.125050
C     51.122611    37.171558    47.167114
O     50.635545    36.010000    46.547264
O     52.052617    37.383667    49.354361
O     54.001485    35.768245    46.798468
O     54.685154    38.983569    47.566081
O     51.601612    37.962788    46.093671
O     53.584502    38.982806    44.198720
H     52.016848    35.621360    48.423253
H     54.358006    36.840286    48.519521
H     54.516035    37.798960    45.876686
H     52.309205    39.513087    47.264866
H     51.811163    39.840918    44.635655
H     53.248958    40.687336    45.347181
H     50.296429    37.730071    47.657971
H     49.913602    36.219451    45.904498
H     52.454121    38.286136    49.303913
H     53.905044    34.902902    47.261492
H     55.543034    39.243260    47.053163
H     54.575820    39.049128    44.481417
P     53.763944    39.035200    42.038339
O     52.343410    39.177510    41.705929
O     54.731995    40.185739    42.275645
O     54.369524    37.673668    42.405760
P     55.519961    38.605400    39.359863
O     56.751854    38.711890    40.261767
O     55.614559    37.572514    38.294835
O     54.189895    38.698117    40.218193
P     55.141486    41.321216    37.831675
O     54.923700    42.602358    38.618966
O     56.321884    41.353028    36.885664
O     54.971089    40.083840    38.844163
O     53.742082    41.382852    36.956393
C     53.341000    40.484000    35.919000
H     53.636460    40.894149    34.946316
H     53.675019    39.443743    36.007454
C     58.586000    39.405000    44.728000
H     58.687285    40.136814    43.909654
H     58.947052    38.435775    44.338420
C     57.162812    39.289956    45.194533
O     56.265140    38.855757    44.423937
O     56.905732    39.610745    46.377553
C     49.276000    33.777000    42.633000
H     50.079335    33.087892    42.920858
H     49.368145    33.957587    41.554046
C     49.340391    35.080521    43.426789
H     48.457843    35.707547    43.183782
H     49.248845    34.862506    44.508884
C     50.622319    35.875804    43.143470
H     50.691633    36.099097    42.056454
H     50.548212    36.870065    43.636688
C     51.877136    35.123794    43.602814
H     51.617119    34.320542    44.328093
H     52.384816    34.617243    42.749949
N     52.858633    36.063750    44.263712
H     52.372157    36.685306    44.939296
H     53.560066    35.537337    44.806993
H     53.369994    36.668838    43.570918
C     50.957000    37.559000    39.635000
H     51.338042    36.900013    40.435916
O     52.024992    37.925564    38.782464
H     52.785170    38.277657    39.317623
C     49.934806    36.842476    38.758612
H     49.628297    37.463555    37.908933
H     50.336358    35.908073    38.350781
H     49.034983    36.586934    39.326059
Mg    56.210427    38.717154    42.368274
O     58.245353    38.099268    42.236681
H     58.203573    37.231191    41.769210
H     58.662561    38.679935    41.556266
H     52.247000    40.514000    36.057000
H     59.245000    39.699000    45.553000
H     48.336000    33.234000    42.783000
H     50.547000    38.485000    40.081000
78
frame=38 E_kcal=-1490.8756
C     52.217000    36.691000    48.136000
C     53.662000    36.855000    47.638000
C     53.927000    38.105000    46.774000
C     52.645000    38.874000    46.401000
C     52.796000    39.706000    45.114000
C     51.125000    37.175000    47.162000
O     50.635000    36.013000    46.546000
O     52.053000    37.385000    49.351000
O     54.002000    35.769000    46.797000
O     54.684000    38.986000    47.561000
O     51.607000    37.960000    46.084000
O     53.587000    38.982000    44.180000
H     52.018000    35.624000    48.418000
H     54.359000    36.845000    48.516000
H     54.524000    37.797000    45.874000
H     52.313000    39.515000    47.250000
H     51.807000    39.850000    44.633000
H     53.255000    40.688000    45.336000
H     50.301000    37.739000    47.650000
H     49.912000    36.222000    45.904000
H     52.456000    38.287000    49.303000
H     53.916000    34.905000    47.265000
H     55.544000    39.247000    47.051000
H     54.589000    39.046000    44.478000
P     53.737000    39.048000    42.135000
O     52.335000    39.188000    41.745000
O     54.729000    40.187000    42.279000
O     54.361000    37.678000    42.406000
P     55.530000    38.594000    39.350000
O     56.758000    38.703000    40.262000
O     55.652000    37.565000    38.283000
O     54.205000    38.699000    40.185000
P     55.141000    41.322000    37.833000
O     54.922000    42.608000    38.616000
O     56.322000    41.364000    36.884000
O     54.976000    40.071000    38.829000
O     53.743000    41.389000    36.950000
C     53.341000    40.484000    35.919000
H     53.636000    40.889000    34.944000
H     53.674000    39.444000    36.013000
C     58.586000    39.405000    44.728000
H     58.689000    40.136000    43.909000
H     58.947000    38.435000    44.340000
C     57.161000    39.291000    45.190000
O     56.264000    38.861000    44.415000
O     56.902000    39.610000    46.373000
C     49.276000    33.777000    42.633000
H     50.079000    33.088000    42.922000
H     49.369000    33.957000    41.554000
C     49.339000    35.081000    43.426000
H     48.458000    35.709000    43.180000
H     49.244000    34.864000    44.508000
C     50.623000    35.874000    43.146000
H     50.693000    36.102000    42.060000
H     50.552000    36.866000    43.644000
C     51.874000    35.114000    43.602000
H     51.610000    34.309000    44.324000
H     52.379000    34.608000    42.747000
N     52.861000    36.045000    44.267000
H     52.377000    36.671000    44.940000
H     53.555000    35.512000    44.814000
H     53.382000    36.640000    43.575000
C     50.957000    37.559000    39.635000
H     51.341000    36.902000    40.436000
O     52.023000    37.926000    38.780000
H     52.788000    38.274000    39.312000
C     49.934000    36.841000    38.761000
H     49.626000    37.461000    37.911000
H     50.335000    35.906000    38.354000
H     49.035000    36.586000    39.330000
Mg    56.208000    38.716000    42.343000
O     58.247000    38.100000    42.240000
H     58.212000    37.230000    41.776000
H     58.671000    38.678000    41.562000
H     52.247000    40.514000    36.057000
H     59.245000    39.699000    45.553000
H     48.336000    33.234000    42.783000
H     50.547000    38.485000    40.081000
78
frame=39 E_kcal=-1491.7724
C     52.218232    36.694185    48.131926
C     53.663224    36.857543    47.634082
C     53.930621    38.105670    46.766988
C     52.649436    38.873081    46.386936
C     52.795486    39.708797    45.102950
C     51.127389    37.178442    47.156886
O     50.634455    36.016000    46.544736
O     52.053383    37.386333    49.347639
O     54.002515    35.769755    46.795532
O     54.682846    38.988431    47.555919
O     51.612388    37.957212    46.074329
O     53.589498    38.981194    44.161280
H     52.019152    35.626640    48.412747
H     54.359994    36.849714    48.512479
H     54.531965    37.795040    45.871314
H     52.316795    39.516913    47.235134
H     51.802837    39.859082    44.630345
H     53.261042    40.688664    45.324819
H     50.305571    37.747929    47.642029
H     49.910398    36.224549    45.903502
H     52.457879    38.287864    49.302087
H     53.926956    34.907098    47.268508
H     55.544966    39.250740    47.048837
H     54.602180    39.042872    44.474583
P     53.710056    39.060800    42.231661
O     52.326590    39.198490    41.784071
O     54.726005    40.188261    42.282355
O     54.352476    37.682332    42.406240
P     55.540039    38.582600    39.340137
O     56.764146    38.694110    40.262233
O     55.689441    37.557486    38.271165
O     54.220105    38.699883    40.151807
P     55.140514    41.322784    37.834325
O     54.920300    42.613642    38.613034
O     56.322116    41.374972    36.882336
O     54.980911    40.058160    38.813837
O     53.743918    41.395148    36.943607
C     53.341000    40.484000    35.919000
H     53.635540    40.883851    34.941684
H     53.672981    39.444257    36.018546
C     58.586000    39.405000    44.728000
H     58.690715    40.135186    43.908346
H     58.946948    38.434225    44.341580
C     57.159188    39.292044    45.185467
O     56.262860    38.866243    44.406063
O     56.898268    39.609255    46.368447
C     49.276000    33.777000    42.633000
H     50.078665    33.088108    42.923142
H     49.369855    33.956413    41.553954
C     49.337609    35.081479    43.425211
H     48.458157    35.710453    43.176218
H     49.239155    34.865494    44.507116
C     50.623681    35.872196    43.148530
H     50.694367    36.104903    42.063546
H     50.555788    36.861935    43.651312
C     51.870864    35.104206    43.601186
H     51.602881    34.297458    44.319907
H     52.373184    34.598757    42.744051
N     52.863367    36.026250    44.270288
H     52.381843    36.656694    44.940704
H     53.549934    35.486663    44.821007
H     53.394006    36.611162    43.579082
C     50.957000    37.559000    39.635000
H     51.343958    36.903987    40.436084
O     52.021008    37.926436    38.777536
H     52.790830    38.270343    39.306377
C     49.933194    36.839524    38.763388
H     49.623703    37.458445    37.913067
H     50.333642    35.903927    38.357219
H     49.035017    36.585066    39.333941
Mg    56.205573    38.714846    42.317726
O     58.248647    38.100732    42.243319
H     58.220427    37.228809    41.782790
H     58.679439    38.676065    41.567734
H     52.247000    40.514000    36.057000
H     59.245000    39.699000    45.553000
H     48.336000    33.234000    42.783000
H     50.547000    38.485000    40.081000
78
frame=40 E_kcal=-1491.7724
C     52.218232    36.694185    48.131926
C     53.663224    36.857543    47.634082
C     53.930621    38.105670    46.766988
C     52.649436    38.873081    46.386936
C     52.795486    39.708797    45.102950
C     51.127389    37.178442    47.156886
O     50.634455    36.016000    46.544736
O     52.053383    37.386333    49.347639
O     54.002515    35.769755    46.795532
O     54.682846    38.988431    47.555919
O     51.612388    37.957212    46.074329
O     53.589498    38.981194    44.161280
H     52.019152    35.626640    48.412747
H     54.359994    36.849714    48.512479
H     54.531965    37.795040    45.871314
H     52.316795    39.516913    47.235134
H     51.802837    39.859082    44.630345
H     53.261042    40.688664    45.324819
H     50.305571    37.747929    47.642029
H     49.910398    36.224549    45.903502
H     52.457879    38.287864    49.302087
H     53.926956    34.907098    47.268508
H     55.544966    39.250740    47.048837
H     54.602180    39.042872    44.474583
P     53.710056    39.060800    42.231661
O     52.326590    39.198490    41.784071
O     54.726005    40.188261    42.282355
O     54.352476    37.682332    42.406240
P     55.540039    38.582600    39.340137
O     56.764146    38.694110    40.262233
O     55.689441    37.557486    38.271165
O     54.220105    38.699883    40.151807
P     55.140514    41.322784    37.834325
O     54.920300    42.613642    38.613034
O     56.322116    41.374972    36.882336
O     54.980911    40.058160    38.813837
O     53.743918    41.395148    36.943607
C     53.341000    40.484000    35.919000
H     53.635540    40.883851    34.941684
H     53.672981    39.444257    36.018546
C     58.586000    39.405000    44.728000
H     58.690715    40.135186    43.908346
H     58.946948    38.434225    44.341580
C     57.159188    39.292044    45.185467
O     56.262860    38.866243    44.406063
O     56.898268    39.609255    46.368447
C     49.276000    33.777000    42.633000
H     50.078665    33.088108    42.923142
H     49.369855    33.956413    41.553954
C     49.337609    35.081479    43.425211
H     48.458157    35.710453    43.176218
H     49.239155    34.865494    44.507116
C     50.623681    35.872196    43.148530
H     50.694367    36.104903    42.063546
H     50.555788    36.861935    43.651312
C     51.870864    35.104206    43.601186
H     51.602881    34.297458    44.319907
H     52.373184    34.598757    42.744051
N     52.863367    36.026250    44.270288
H     52.381843    36.656694    44.940704
H     53.549934    35.486663    44.821007
H     53.394006    36.611162    43.579082
C     50.957000    37.559000    39.635000
H     51.343958    36.903987    40.436084
O     52.021008    37.926436    38.777536
H     52.790830    38.270343    39.306377
C     49.933194    36.839524    38.763388
H     49.623703    37.458445    37.913067
H     50.333642    35.903927    38.357219
H     49.035017    36.585066    39.333941
Mg    56.205573    38.714846    42.317726
O     58.248647    38.100732    42.243319
H     58.220427    37.228809    41.782790
H     58.679439    38.676065    41.567734
H     52.247000    40.514000    36.057000
H     59.245000    39.699000    45.553000
H     48.336000    33.234000    42.783000
H     50.547000    38.485000    40.081000
78
frame=41 E_kcal=-1492.0190
C     52.218798    36.694293    48.131840
C     53.663671    36.857543    47.633442
C     53.930740    38.105593    46.767147
C     52.649079    38.872703    46.386543
C     52.795263    39.709829    45.103891
C     51.126961    37.178202    47.156499
O     50.634678    36.016389    46.544977
O     52.053246    37.386491    49.347683
O     54.002420    35.770142    46.795751
O     54.682778    38.988611    47.555050
O     51.613083    37.957407    46.073892
O     53.589726    38.980777    44.162729
H     52.019096    35.626841    48.412719
H     54.359665    36.849856    48.512175
H     54.532041    37.794917    45.871519
H     52.316837    39.516974    47.235016
H     51.802155    39.859286    44.630217
H     53.260750    40.688287    45.324702
H     50.305821    37.747996    47.641899
H     49.910215    36.224603    45.903411
H     52.457902    38.287910    49.301986
H     53.926988    34.906867    47.268455
H     55.544903    39.250694    47.049148
H     54.603746    39.042683    44.474754
P     53.709882    39.061598    42.237854
O     52.326556    39.199151    41.787395
O     54.724197    40.186678    42.282951
O     54.351030    37.684296    42.406500
P     55.543125    38.582284    39.338236
O     56.763480    38.693882    40.261180
O     55.691094    37.557130    38.270849
O     54.220370    38.699606    40.149198
P     55.140824    41.323253    37.833308
O     54.919811    42.613069    38.613131
O     56.321982    41.374986    36.882598
O     54.981485    40.057426    38.813268
O     53.744127    41.394946    36.943054
C     53.341000    40.484000    35.919000
H     53.635515    40.883613    34.941948
H     53.673203    39.444242    36.018441
C     58.586000    39.405000    44.728000
H     58.690759    40.135274    43.908127
H     58.946717    38.434765    44.341792
C     57.159478    39.292138    45.185653
O     56.261889    38.866664    44.405912
O     56.898062    39.609176    46.367663
C     49.276000    33.777000    42.633000
H     50.078713    33.088071    42.923044
H     49.369873    33.956451    41.554196
C     49.336941    35.081022    43.425476
H     48.458148    35.710464    43.176299
H     49.239188    34.865567    44.506953
C     50.624464    35.872386    43.148224
H     50.694258    36.104904    42.063777
H     50.555852    36.861721    43.651424
C     51.870155    35.104419    43.601437
H     51.602889    34.297106    44.319973
H     52.373414    34.598619    42.743771
N     52.863774    36.025444    44.270176
H     52.381683    36.656476    44.940675
H     53.550178    35.486479    44.821166
H     53.394024    36.611017    43.579115
C     50.957000    37.559000    39.635000
H     51.343884    36.904103    40.436096
O     52.022119    37.926375    38.777148
H     52.790026    38.270757    39.305882
C     49.933818    36.839522    38.763213
H     49.623553    37.458432    37.913132
H     50.333541    35.904107    38.357427
H     49.034990    36.585083    39.333996
Mg    56.205245    38.714951    42.315874
O     58.248059    38.100031    42.243578
H     58.220428    37.228844    41.782971
H     58.679778    38.676524    41.567518
H     52.247000    40.514000    36.057000
H     59.245000    39.699000    45.553000
H     48.336000    33.234000    42.783000
H     50.547000    38.485000    40.081000
78
frame=42 E_kcal=-1492.1706
C     52.218940    36.694753    48.131436
C     53.663725    36.857840    47.633246
C     53.930802    38.105701    46.766280
C     52.648995    38.872875    46.386729
C     52.793957    39.710669    45.104962
C     51.127612    37.178646    47.156091
O     50.634500    36.016569    46.544665
O     52.053166    37.386821    49.347128
O     54.002630    35.769784    46.795429
O     54.682247    38.989532    47.554063
O     51.613501    37.956557    46.072792
O     53.589885    38.979616    44.165792
H     52.019190    35.627474    48.412582
H     54.359382    36.850290    48.511758
H     54.532426    37.794467    45.871638
H     52.316845    39.516852    47.234881
H     51.800915    39.860012    44.630553
H     53.260514    40.689121    45.325093
H     50.306401    37.748464    47.641473
H     49.909978    36.224623    45.903433
H     52.457979    38.288151    49.301778
H     53.927074    34.906750    47.268208
H     55.545188    39.250693    47.049381
H     54.607947    39.042436    44.476259
P     53.704628    39.063744    42.256106
O     52.324151    39.201567    41.797441
O     54.722770    40.186928    42.285201
O     54.348763    37.685367    42.407974
P     55.545218    38.581443    39.333672
O     56.765448    38.693455    40.260053
O     55.697248    37.554573    38.267892
O     54.224887    38.699376    40.140388
P     55.140479    41.322669    37.832658
O     54.918826    42.612470    38.613198
O     56.322883    41.375864    36.882339
O     54.983611    40.055938    38.810015
O     53.744311    41.395402    36.941890
C     53.341000    40.484000    35.919000
H     53.635511    40.883121    34.941945
H     53.673676    39.444173    36.018137
C     58.586000    39.405000    44.728000
H     58.690836    40.135347    43.907788
H     58.946552    38.435279    44.341956
C     57.158829    39.292224    45.184815
O     56.261118    38.868000    44.405049
O     56.897646    39.609364    46.366977
C     49.276000    33.777000    42.633000
H     50.078823    33.088003    42.922790
H     49.369950    33.956647    41.554434
C     49.337115    35.081180    43.425373
H     48.457990    35.710528    43.176496
H     49.239191    34.865613    44.507073
C     50.624019    35.872046    43.148499
H     50.694057    36.105014    42.063826
H     50.556006    36.861346    43.651770
C     51.870437    35.103466    43.601323
H     51.602711    34.296319    44.319972
H     52.373413    34.598501    42.743699
N     52.863833    36.024606    44.270491
H     52.381792    36.655346    44.940406
H     53.550874    35.485590    44.821468
H     53.394157    36.609958    43.579223
C     50.957000    37.559000    39.635000
H     51.343903    36.904456    40.436200
O     52.021589    37.925112    38.776248
H     52.789167    38.272355    39.304834
C     49.933968    36.839731    38.763281
H     49.623304    37.458426    37.913257
H     50.333656    35.904025    38.357686
H     49.035528    36.585278    39.333832
Mg    56.204389    38.714973    42.310956
O     58.247151    38.100197    42.243208
H     58.220364    37.228197    41.783198
H     58.679850    38.676471    41.568280
H     52.247000    40.514000    36.057000
H     59.245000    39.699000    45.553000
H     48.336000    33.234000    42.783000
H     50.547000    38.485000    40.081000
78
frame=43 E_kcal=-1492.5662
C     52.219138    36.695456    48.130431
C     53.664021    36.858269    47.632296
C     53.931216    38.106083    46.765380
C     52.648548    38.872928    46.386110
C     52.792239    39.713594    45.107314
C     51.127458    37.178547    47.154802
O     50.634302    36.016714    46.544302
O     52.053045    37.387998    49.345820
O     54.003013    35.770200    46.795011
O     54.681245    38.991143    47.552535
O     51.614949    37.955602    46.070802
O     53.591568    38.976868    44.170664
H     52.019390    35.628329    48.412095
H     54.359635    36.851374    48.511058
H     54.533535    37.793434    45.871288
H     52.315939    39.515965    47.235891
H     51.797915    39.862773    44.633715
H     53.259296    40.691967    45.327055
H     50.307745    37.750276    47.639911
H     49.909173    36.224965    45.903466
H     52.458319    38.289186    49.301131
H     53.927264    34.906876    47.267764
H     55.545843    39.251295    47.049261
H     54.617846    39.042690    44.483674
P     53.690990    39.070018    42.305187
O     52.316513    39.209498    41.831078
O     54.717162    40.185726    42.292985
O     54.341263    37.691043    42.412533
P     55.555683    38.573866    39.323085
O     56.771325    38.691483    40.254669
O     55.718414    37.548255    38.258415
O     54.233665    38.699283    40.116945
P     55.141478    41.323060    37.831036
O     54.916685    42.613150    38.612872
O     56.324680    41.380631    36.880746
O     54.990080    40.048506    38.798628
O     53.744770    41.398275    36.938976
C     53.341000    40.484000    35.919000
H     53.635142    40.881988    34.940742
H     53.674261    39.444443    36.017976
C     58.586000    39.405000    44.728000
H     58.691029    40.134969    43.907769
H     58.946700    38.434721    44.341760
C     57.158273    39.293701    45.183197
O     56.261355    38.871662    44.400707
O     56.896066    39.609531    46.365420
C     49.276000    33.777000    42.633000
H     50.078896    33.088030    42.922315
H     49.370048    33.957197    41.554221
C     49.336810    35.080746    43.425844
H     48.457982    35.710479    43.176948
H     49.239011    34.865533    44.507352
C     50.624722    35.871349    43.148967
H     50.693907    36.105009    42.064666
H     50.556597    36.860264    43.652850
C     51.870045    35.101713    43.601374
H     51.602292    34.294198    44.319387
H     52.373386    34.597441    42.743009
N     52.864191    36.021386    44.270990
H     52.381915    36.652123    44.941168
H     53.551411    35.482964    44.821528
H     53.395315    36.605227    43.579142
C     50.957000    37.559000    39.635000
H     51.344420    36.905252    40.436801
O     52.020537    37.923893    38.774665
H     52.787731    38.275126    39.300050
C     49.933829    36.839406    38.763354
H     49.623001    37.458483    37.913363
H     50.333984    35.903904    38.358057
H     49.035212    36.585185    39.334354
Mg    56.198836    38.715331    42.294834
O     58.244399    38.099619    42.243290
H     58.220192    37.227654    41.783778
H     58.680448    38.675855    41.569896
H     52.247000    40.514000    36.057000
H     59.245000    39.699000    45.553000
H     48.336000    33.234000    42.783000
H     50.547000    38.485000    40.081000
78
frame=44 E_kcal=-1494.4727
C     52.219270    36.696352    48.129433
C     53.664415    36.859053    47.631909
C     53.931831    38.106780    46.765237
C     52.647360    38.872780    46.389112
C     52.789353    39.719983    45.117302
C     51.127708    37.178954    47.153165
O     50.633554    36.017373    46.543695
O     52.052676    37.389881    49.344156
O     54.003569    35.771388    46.794393
O     54.681459    38.992519    47.551436
O     51.616998    37.953925    46.068427
O     53.596259    38.976129    44.190744
H     52.019867    35.629308    48.411353
H     54.360468    36.852705    48.510351
H     54.534709    37.792682    45.871866
H     52.313725    39.513017    47.239223
H     51.793699    39.869524    44.642329
H     53.257430    40.698330    45.333202
H     50.308812    37.752923    47.636783
H     49.907571    36.225272    45.903523
H     52.458978    38.290642    49.299201
H     53.927734    34.908083    47.267056
H     55.546486    39.253469    47.047921
H     54.636049    39.044613    44.500152
P     53.671714    39.081072    42.364758
O     52.295678    39.226905    41.900968
O     54.706817    40.186044    42.306375
O     54.326339    37.699856    42.418878
P     55.578577    38.563853    39.303622
O     56.783966    38.684259    40.247374
O     55.761928    37.538187    38.241304
O     54.250174    38.691291    40.074315
P     55.143813    41.323952    37.828117
O     54.913985    42.612356    38.611351
O     56.326366    41.394880    36.876222
O     55.001801    40.033373    38.776714
O     53.748310    41.402648    36.933139
C     53.341000    40.484000    35.919000
H     53.633174    40.879082    34.939038
H     53.675040    39.444955    36.020446
C     58.586000    39.405000    44.728000
H     58.692301    40.134453    43.907086
H     58.945628    38.434753    44.342323
C     57.156475    39.295229    45.178908
O     56.262232    38.878206    44.391813
O     56.892518    39.609457    46.362109
C     49.276000    33.777000    42.633000
H     50.079018    33.087855    42.921844
H     49.369819    33.957859    41.554528
C     49.336720    35.080228    43.426660
H     48.458363    35.710406    43.177532
H     49.238487    34.864690    44.508064
C     50.625174    35.869894    43.150212
H     50.694417    36.104856    42.066116
H     50.558074    36.858518    43.655083
C     51.869643    35.097739    43.601300
H     51.600897    34.289615    44.317873
H     52.372330    34.594577    42.741905
N     52.865463    36.014990    44.271793
H     52.383414    36.645771    44.942325
H     53.551101    35.475373    44.822688
H     53.397745    36.596727    43.578643
C     50.957000    37.559000    39.635000
H     51.346710    36.907079    40.436581
O     52.016019    37.924852    38.769385
H     52.786655    38.277183    39.287801
C     49.933106    36.838767    38.764719
H     49.622683    37.457608    37.914431
H     50.333530    35.903746    38.358757
H     49.034618    36.584536    39.335244
Mg    56.185972    38.717413    42.262911
O     58.238871    38.099257    42.243746
H     58.219339    37.226899    41.784922
H     58.681452    38.673876    41.573924
H     52.247000    40.514000    36.057000
H     59.245000    39.699000    45.553000
H     48.336000    33.234000    42.783000
H     50.547000    38.485000    40.081000
78
frame=45 E_kcal=-1495.4676
C     52.219014    36.696549    48.129061
C     53.664932    36.859395    47.633602
C     53.931775    38.108649    46.769930
C     52.645572    38.875523    46.401744
C     52.791385    39.729795    45.137248
C     51.127509    37.178556    47.151996
O     50.632103    36.017152    46.543331
O     52.051891    37.392101    49.342551
O     54.004274    35.772824    46.794492
O     54.684083    38.994145    47.552992
O     51.620851    37.953587    46.069045
O     53.604382    38.979966    44.218457
H     52.019872    35.629946    48.411373
H     54.360819    36.852406    48.511818
H     54.532531    37.793444    45.875244
H     52.307400    39.507830    47.256171
H     51.796569    39.878667    44.658997
H     53.255001    40.710177    45.353525
H     50.308914    37.754655    47.634130
H     49.905624    36.225759    45.903689
H     52.459428    38.292168    49.296889
H     53.928804    34.908933    47.266125
H     55.546808    39.256152    47.045017
H     54.650764    39.053554    44.523470
P     53.650108    39.092267    42.408517
O     52.260845    39.253988    41.997275
O     54.692594    40.190730    42.315137
O     54.304358    37.711158    42.414987
P     55.610801    38.551400    39.274886
O     56.802665    38.678552    40.237030
O     55.827939    37.529469    38.216480
O     54.274605    38.662198    40.023573
P     55.150627    41.325759    37.818063
O     54.911090    42.604111    38.614829
O     56.331761    41.418460    36.866205
O     55.020635    40.018759    38.748164
O     53.752052    41.407578    36.926317
C     53.341000    40.484000    35.919000
H     53.630268    40.873526    34.935533
H     53.674964    39.445349    36.025000
C     58.586000    39.405000    44.728000
H     58.695076    40.132924    43.906151
H     58.944423    38.433516    44.342948
C     57.156079    39.297638    45.172204
O     56.267349    38.884938    44.377782
O     56.886669    39.609136    46.354933
C     49.276000    33.777000    42.633000
H     50.078852    33.087524    42.921182
H     49.369454    33.958592    41.554485
C     49.336660    35.079577    43.427495
H     48.459016    35.710568    43.178330
H     49.237761    34.863259    44.508650
C     50.626007    35.867670    43.152101
H     50.695513    36.104583    42.068600
H     50.561178    36.855597    43.658654
C     51.868874    35.091632    43.600963
H     51.598473    34.282606    44.316010
H     52.369907    34.589064    42.740143
N     52.867144    36.005385    44.272654
H     52.387643    36.637713    44.942985
H     53.551100    35.463275    44.823606
H     53.400383    36.585948    43.579867
C     50.957000    37.559000    39.635000
H     51.354238    36.909206    40.433988
O     52.006846    37.927862    38.757463
H     52.784552    38.276841    39.263121
C     49.931723    36.837172    38.767168
H     49.620813    37.456009    37.916447
H     50.332172    35.902033    38.360737
H     49.033708    36.583292    39.338056
Mg    56.166473    38.719180    42.230940
O     58.227064    38.099743    42.244633
H     58.215654    37.226371    41.788237
H     58.682986    38.671231    41.582177
H     52.247000    40.514000    36.057000
H     59.245000    39.699000    45.553000
H     48.336000    33.234000    42.783000
H     50.547000    38.485000    40.081000
78
frame=46 E_kcal=-1496.9842
C     52.217788    36.694985    48.132039
C     53.665424    36.857995    47.640305
C     53.931927    38.110127    46.782050
C     52.644518    38.877746    46.421451
C     52.796925    39.741990    45.165556
C     51.127174    37.177553    47.153424
O     50.632524    36.017728    46.541526
O     52.049405    37.393698    49.343671
O     54.004535    35.774992    46.796329
O     54.690263    38.994118    47.560552
O     51.624317    37.955430    46.074437
O     53.615772    38.994756    44.246902
H     52.018334    35.628851    48.414251
H     54.360259    36.847684    48.518751
H     54.525295    37.796374    45.882181
H     52.300755    39.498425    47.282234
H     51.803654    39.891995    44.682350
H     53.258822    40.721151    45.390293
H     50.307786    37.753372    47.634700
H     49.904285    36.226786    45.903949
H     52.458491    38.293206    49.295563
H     53.930976    34.909715    47.265314
H     55.548490    39.257654    47.043352
H     54.665434    39.071098    44.542455
P     53.625188    39.107474    42.443856
O     52.219215    39.289913    42.097748
O     54.671416    40.195650    42.308470
O     54.272818    37.725994    42.399131
P     55.649943    38.539910    39.244625
O     56.820420    38.683681    40.228191
O     55.908269    37.532249    38.181475
O     54.300245    38.620391    39.963531
P     55.163399    41.322189    37.807254
O     54.912949    42.586184    38.623653
O     56.338113    41.449529    36.850688
O     55.044547    40.000439    38.714940
O     53.760464    41.407273    36.921971
C     53.341000    40.484000    35.919000
H     53.627820    40.866140    34.932071
H     53.672835    39.444493    36.028930
C     58.586000    39.405000    44.728000
H     58.699985    40.130823    43.904728
H     58.944119    38.432850    44.344606
C     57.152876    39.299551    45.162396
O     56.265618    38.890928    44.363480
O     56.878569    39.610725    46.344093
C     49.276000    33.777000    42.633000
H     50.078749    33.086959    42.920250
H     49.369186    33.959315    41.554644
C     49.336695    35.078931    43.428575
H     48.459865    35.710994    43.179148
H     49.236688    34.861729    44.509556
C     50.627287    35.865046    43.154482
H     50.697070    36.104607    42.071515
H     50.565585    36.851683    43.663748
C     51.867952    35.084600    43.601308
H     51.595852    34.274269    44.314288
H     52.366589    34.582065    42.738992
N     52.868912    35.994434    44.274015
H     52.392384    36.628068    44.945535
H     53.552221    35.448468    44.822449
H     53.404814    36.570020    43.580610
C     50.957000    37.559000    39.635000
H     51.367371    36.911199    40.428469
O     51.994331    37.932457    38.741887
H     52.786174    38.266299    39.231057
C     49.928916    36.834313    38.772714
H     49.616526    37.451776    37.921174
H     50.329339    35.899461    38.365628
H     49.031985    36.581090    39.344817
Mg    56.142977    38.722650    42.202199
O     58.210273    38.100609    42.249251
H     58.206047    37.226809    41.794506
H     58.680672    38.669103    41.594973
H     52.247000    40.514000    36.057000
H     59.245000    39.699000    45.553000
H     48.336000    33.234000    42.783000
H     50.547000    38.485000    40.081000
78
frame=47 E_kcal=-1498.1218
C     52.215488    36.691693    48.139041
C     53.665006    36.854540    47.651790
C     53.933178    38.108299    46.797240
C     52.646678    38.877921    46.441936
C     52.808974    39.754424    45.196307
C     51.127668    37.175008    47.157567
O     50.636271    36.017448    46.538716
O     52.045048    37.393268    49.348942
O     54.003617    35.776412    46.801550
O     54.697933    38.989325    47.572785
O     51.628255    37.957908    46.083767
O     53.631466    39.018367    44.271045
H     52.014636    35.626381    48.421907
H     54.357632    36.837988    48.531672
H     54.520048    37.796059    45.892667
H     52.298289    39.489957    47.307331
H     51.815639    39.914342    44.715245
H     53.272877    40.728316    45.437161
H     50.305663    37.746982    47.639294
H     49.905481    36.229327    45.904867
H     52.455097    38.292295    49.298637
H     53.934416    34.908907    47.265664
H     55.549893    39.255876    47.047386
H     54.687360    39.098496    44.554791
P     53.594766    39.128890    42.472280
O     52.177640    39.329283    42.185060
O     54.646831    40.205370    42.292242
O     54.229030    37.745814    42.388919
P     55.687433    38.530961    39.212582
O     56.833296    38.697719    40.223048
O     56.000070    37.543825    38.144694
O     54.325353    38.566596    39.899759
P     55.181861    41.321033    37.792179
O     54.917891    42.562415    38.636995
O     56.346814    41.480193    36.830975
O     55.069400    39.983335    38.676525
O     53.769116    41.404047    36.920755
C     53.341000    40.484000    35.919000
H     53.627230    40.862538    34.930604
H     53.667009    39.442691    36.028525
C     58.586000    39.405000    44.728000
H     58.705674    40.128705    43.903497
H     58.944436    38.431607    44.348090
C     57.149355    39.304194    45.153284
O     56.262344    38.902207    44.350083
O     56.870814    39.616084    46.333506
C     49.276000    33.777000    42.633000
H     50.078682    33.086528    42.919305
H     49.369023    33.960327    41.554823
C     49.336737    35.078240    43.429734
H     48.460925    35.711453    43.179731
H     49.235283    34.860320    44.510433
C     50.628849    35.862396    43.158016
H     50.699226    36.104856    42.075827
H     50.569745    36.847846    43.669924
C     51.867188    35.076617    43.602545
H     51.592577    34.265904    44.314145
H     52.363343    34.574430    42.738512
N     52.871725    35.981790    44.275227
H     52.400361    36.616472    44.947628
H     53.555667    35.432902    44.821144
H     53.408653    36.556111    43.580550
C     50.957000    37.559000    39.635000
H     51.381663    36.914360    40.422067
O     51.978081    37.939186    38.724877
H     52.788460    38.243647    39.198069
C     49.923949    36.829338    38.781962
H     49.608084    37.444540    37.929694
H     50.324071    35.894313    38.375249
H     49.029740    36.577569    39.358573
Mg    56.112645    38.727962    42.176748
O     58.187242    38.101028    42.259509
H     58.188251    37.228413    41.803532
H     58.670018    38.669026    41.614540
H     52.247000    40.514000    36.057000
H     59.245000    39.699000    45.553000
H     48.336000    33.234000    42.783000
H     50.547000    38.485000    40.081000
78
frame=48 E_kcal=-1498.7216
C     52.213675    36.687026    48.147775
C     53.664941    36.846982    47.664249
C     53.936994    38.101806    46.812628
C     52.653730    38.876741    46.460755
C     52.826798    39.769832    45.228019
C     51.130243    37.172069    47.162144
O     50.642777    36.016598    46.536386
O     52.039995    37.389706    49.356785
O     54.002323    35.772096    46.809586
O     54.705127    38.980864    47.587913
O     51.634395    37.961230    46.093755
O     53.644394    39.044738    44.290494
H     52.010039    35.622892    48.432664
H     54.354273    36.826702    48.546449
H     54.520233    37.789315    45.906116
H     52.303053    39.483297    47.329547
H     51.834597    39.945964    44.751553
H     53.298994    40.735927    45.486311
H     50.304249    37.738672    47.643699
H     49.910195    36.230733    45.905289
H     52.449499    38.288888    49.308352
H     53.937672    34.902888    47.270609
H     55.551998    39.250010    47.058375
H     54.709385    39.131112    44.559377
P     53.565827    39.151601    42.493811
O     52.143430    39.371018    42.248352
O     54.618437    40.220693    42.279682
O     54.188516    37.765393    42.388365
P     55.723371    38.528423    39.186685
O     56.840424    38.707842    40.225983
O     56.097308    37.564821    38.115452
O     54.347859    38.502852    39.841121
P     55.195754    41.318835    37.778635
O     54.927686    42.542412    38.646287
O     56.352357    41.504551    36.813026
O     55.084375    39.968882    38.642696
O     53.775706    41.400526    36.920455
C     53.341000    40.484000    35.919000
H     53.626505    40.863711    34.930471
H     53.663587    39.440963    36.026211
C     58.586000    39.405000    44.728000
H     58.711244    40.125685    43.901547
H     58.941478    38.429003    44.352496
C     57.147185    39.314084    45.146765
O     56.261431    38.923192    44.337049
O     56.865751    39.625158    46.327333
C     49.276000    33.777000    42.633000
H     50.078629    33.086167    42.918441
H     49.368824    33.961469    41.554987
C     49.336907    35.077342    43.431070
H     48.462429    35.712002    43.179946
H     49.233277    34.858653    44.511498
C     50.630558    35.859682    43.162133
H     50.702066    36.105572    42.080901
H     50.573930    36.843420    43.677414
C     51.866987    35.070169    43.604603
H     51.590515    34.259452    44.315526
H     52.359499    34.565705    42.739842
N     52.875371    35.972069    44.276593
H     52.407597    36.605510    44.952616
H     53.560253    35.419322    44.816676
H     53.413887    36.546122    43.582076
C     50.957000    37.559000    39.635000
H     51.395077    36.918817    40.418294
O     51.964180    37.941021    38.709259
H     52.790906    38.219847    39.166013
C     49.917536    36.822536    38.795309
H     49.593983    37.433026    37.942332
H     50.315314    35.885884    38.390112
H     49.028185    36.572893    39.379864
Mg    56.073142    38.735691    42.144512
O     58.152541    38.101982    42.273632
H     58.162612    37.231477    41.814614
H     58.650186    38.671194    41.641466
H     52.247000    40.514000    36.057000
H     59.245000    39.699000    45.553000
H     48.336000    33.234000    42.783000
H     50.547000    38.485000    40.081000
78
frame=49 E_kcal=-1499.6824
C     52.212811    36.682325    48.156186
C     53.666173    36.837866    47.677007
C     53.944003    38.092872    46.826589
C     52.664661    38.875215    46.478185
C     52.846930    39.785541    45.258559
C     51.135475    37.171220    47.165116
O     50.654284    36.017049    46.532154
O     52.035358    37.382469    49.366052
O     54.000480    35.762754    46.821332
O     54.715338    38.967762    47.604567
O     51.643198    37.966442    46.102205
O     53.654850    39.068750    44.306745
H     52.005086    35.618484    48.440379
H     54.353548    36.813438    48.560466
H     54.524210    37.780869    45.918699
H     52.314804    39.473973    47.353317
H     51.856284    39.988548    44.790692
H     53.334743    40.738860    45.534608
H     50.305881    37.734255    47.644650
H     49.918506    36.229631    45.904524
H     52.444073    38.281911    49.321388
H     53.938012    34.893197    47.282163
H     55.557819    39.241250    47.074333
H     54.731839    39.160126    44.557993
P     53.541636    39.174181    42.515381
O     52.116814    39.405563    42.290265
O     54.593826    40.239130    42.276145
O     54.152685    37.785515    42.391330
P     55.750426    38.523522    39.166167
O     56.842259    38.726542    40.229637
O     56.193732    37.596990    38.088125
O     54.368461    38.432382    39.791674
P     55.204298    41.315503    37.771728
O     54.940008    42.528826    38.651859
O     56.351738    41.512061    36.799841
O     55.093794    39.955615    38.619708
O     53.777045    41.395597    36.924924
C     53.341000    40.484000    35.919000
H     53.623909    40.865951    34.930749
H     53.664783    39.441040    36.022907
C     58.586000    39.405000    44.728000
H     58.718398    40.120195    43.898009
H     58.933359    38.424503    44.357913
C     57.143197    39.327940    45.141287
O     56.253614    38.955505    44.326104
O     56.862709    39.634626    46.322384
C     49.276000    33.777000    42.633000
H     50.078532    33.085587    42.917356
H     49.368471    33.962518    41.555192
C     49.337829    35.076647    43.432308
H     48.464475    35.712739    43.180222
H     49.231246    34.856838    44.512233
C     50.632920    35.857927    43.167008
H     50.704941    36.107116    42.086532
H     50.577068    36.840056    43.686094
C     51.867775    35.064922    43.607775
H     51.590567    34.256292    44.320311
H     52.357659    34.558377    42.742318
N     52.880524    35.963739    44.278862
H     52.415903    36.595002    44.958540
H     53.566252    35.408123    44.815199
H     53.411115    36.543351    43.584260
C     50.957000    37.559000    39.635000
H     51.406179    36.925238    40.417320
O     51.952373    37.937009    38.694099
H     52.789829    38.202675    39.136024
C     49.909379    36.813832    38.813068
H     49.574746    37.416729    37.958943
H     50.303981    35.874836    38.410266
H     49.027170    36.567192    39.409826
Mg    56.035608    38.752061    42.117481
O     58.107543    38.101251    42.293822
H     58.127362    37.235261    41.826458
H     58.618793    38.675428    41.677895
H     52.247000    40.514000    36.057000
H     59.245000    39.699000    45.553000
H     48.336000    33.234000    42.783000
H     50.547000    38.485000    40.081000
78
frame=50 E_kcal=-1500.0842
C     52.213581    36.678443    48.161325
C     53.669205    36.828720    47.687404
C     53.954350    38.082976    46.838405
C     52.679296    38.873859    46.494550
C     52.870902    39.800308    45.288137
C     51.142751    37.172105    47.165725
O     50.668800    36.018459    46.525832
O     52.032504    37.372923    49.373377
O     53.999208    35.750840    46.833262
O     54.729539    38.950648    47.620787
O     51.655630    37.971955    46.108363
O     53.663092    39.086950    44.321305
H     52.000006    35.614144    48.440278
H     54.353886    36.800668    48.572706
H     54.530827    37.772659    45.928525
H     52.330263    39.463950    47.375878
H     51.881530    40.032591    44.833001
H     53.378839    40.738749    45.580107
H     50.309739    37.732885    47.641700
H     49.929662    36.228879    45.902089
H     52.441384    38.272415    49.336376
H     53.934847    34.883571    47.298509
H     55.567158    39.231075    47.090447
H     54.748406    39.180145    44.558530
P     53.522406    39.194260    42.532659
O     52.095604    39.431845    42.321107
O     54.571342    40.259856    42.282176
O     54.128594    37.805452    42.394570
P     55.772972    38.524844    39.151255
O     56.837799    38.759872    40.235090
O     56.273395    37.641219    38.060015
O     54.386758    38.350171    39.741661
P     55.208325    41.309953    37.768668
O     54.950322    42.517946    38.655274
O     56.350108    41.499726    36.789796
O     55.090449    39.947076    38.608868
O     53.774539    41.386151    36.935024
C     53.341000    40.484000    35.919000
H     53.623661    40.872226    34.933384
H     53.666250    39.440928    36.016887
C     58.586000    39.405000    44.728000
H     58.728452    40.112748    43.893535
H     58.923316    38.417768    44.367320
C     57.141748    39.346016    45.139115
O     56.249913    38.993473    44.317448
O     56.863117    39.644710    46.322446
C     49.276000    33.777000    42.633000
H     50.078472    33.084970    42.916101
H     49.367946    33.963563    41.555326
C     49.338717    35.075589    43.433871
H     48.467163    35.713729    43.180533
H     49.230047    34.854923    44.513497
C     50.634990    35.855854    43.172565
H     50.709272    36.109222    42.093385
H     50.579865    36.836390    43.694570
C     51.868576    35.061589    43.613459
H     51.590555    34.253352    44.326626
H     52.357433    34.554225    42.748054
N     52.882790    35.961049    44.283124
H     52.419670    36.585770    44.970324
H     53.573894    35.404633    44.809960
H     53.408645    36.547193    43.591085
C     50.957000    37.559000    39.635000
H     51.416594    36.932890    40.417762
O     51.940297    37.933232    38.680698
H     52.784941    38.193882    39.112931
C     49.900764    36.803680    38.833932
H     49.551808    37.397273    37.979132
H     50.291535    35.861398    38.434964
H     49.027621    36.560863    39.445842
Mg    56.003784    38.768566    42.103058
O     58.060655    38.097651    42.319979
H     58.080710    37.239287    41.838350
H     58.582286    38.680655    41.720870
H     52.247000    40.514000    36.057000
H     59.245000    39.699000    45.553000
H     48.336000    33.234000    42.783000
H     50.547000    38.485000    40.081000
78
frame=51 E_kcal=-1500.4941
C     52.215278    36.674522    48.163709
C     53.673454    36.819602    47.696048
C     53.967003    38.073253    46.848682
C     52.695940    38.873434    46.510856
C     52.896267    39.813793    45.316391
C     51.150861    37.174198    47.164170
O     50.682422    36.022208    46.516484
O     52.030875    37.361936    49.378798
O     54.001373    35.738736    46.844578
O     54.746703    38.934238    47.634078
O     51.670147    37.978804    46.113507
O     53.669519    39.099429    44.335835
H     51.996521    35.609249    48.436040
H     54.354278    36.789314    48.584076
H     54.540082    37.763018    45.937112
H     52.347093    39.455927    47.397558
H     51.908623    40.073979    44.873806
H     53.427640    40.736098    45.620147
H     50.314208    37.732208    47.636206
H     49.940267    36.230781    45.896083
H     52.443249    38.260101    49.351497
H     53.930423    34.872609    47.312030
H     55.581038    39.221641    47.104262
H     54.762915    39.191882    44.560511
P     53.507576    39.213024    42.550323
O     52.078421    39.449419    42.349812
O     54.551024    40.281720    42.290689
O     54.110584    37.823870    42.399902
P     55.783211    38.530561    39.140843
O     56.825580    38.797548    40.242323
O     56.344301    37.694492    38.040134
O     54.405269    38.256798    39.705386
P     55.206361    41.306781    37.765402
O     54.961528    42.512006    38.656152
O     56.347590    41.476602    36.784311
O     55.076309    39.942247    38.601359
O     53.768120    41.376642    36.946832
C     53.341000    40.484000    35.919000
H     53.626794    40.883841    34.938664
H     53.664701    39.439526    36.006326
C     58.586000    39.405000    44.728000
H     58.739474    40.102841    43.887740
H     58.913660    38.409511    44.380295
C     57.140866    39.362233    45.139442
O     56.244360    39.024752    44.316412
O     56.868029    39.655564    46.325523
C     49.276000    33.777000    42.633000
H     50.078563    33.084590    42.914738
H     49.367400    33.965169    41.555578
C     49.340109    35.074744    43.435571
H     48.469270    35.713904    43.181758
H     49.228612    34.852306    44.514536
C     50.637328    35.855517    43.178465
H     50.713857    36.110254    42.099764
H     50.580301    36.834922    43.703064
C     51.871367    35.061768    43.619988
H     51.593080    34.254444    44.333401
H     52.360497    34.552420    42.755861
N     52.884908    35.961306    44.290651
H     52.420638    36.577367    44.985071
H     53.582643    35.404071    44.809016
H     53.401070    36.557961    43.600725
C     50.957000    37.559000    39.635000
H     51.430159    36.940913    40.416433
O     51.927826    37.935800    38.669178
H     52.779933    38.188552    39.090864
C     49.892598    36.792275    38.856572
H     49.527522    37.375546    38.001692
H     50.279190    35.846600    38.462097
H     49.029305    36.553299    39.484697
Mg    55.973966    38.788378    42.092629
O     58.011478    38.092343    42.345073
H     58.031643    37.242642    41.848387
H     58.550457    38.681018    41.766689
H     52.247000    40.514000    36.057000
H     59.245000    39.699000    45.553000
H     48.336000    33.234000    42.783000
H     50.547000    38.485000    40.081000
78
frame=52 E_kcal=-1501.0952
C     52.216207    36.670011    48.165210
C     53.676240    36.808794    47.703885
C     53.982465    38.061198    46.861980
C     52.716543    38.873900    46.528345
C     52.920936    39.824522    45.341674
C     51.158389    37.176605    47.162175
O     50.694981    36.027835    46.504545
O     52.029638    37.354039    49.381977
O     54.007556    35.728624    46.853952
O     54.790000    38.882447    47.662181
O     51.685397    37.988120    46.120222
O     53.676909    39.109499    44.349153
H     51.993683    35.603977    48.431383
H     54.354316    36.778337    48.595340
H     54.547746    37.754238    45.944372
H     52.365551    39.449107    47.417996
H     51.935299    40.111523    44.910947
H     53.471894    40.732578    45.652853
H     50.318826    37.732025    47.631851
H     49.949577    36.237214    45.888404
H     52.440170    38.252806    49.356755
H     53.926806    34.862949    47.319589
H     55.575427    39.241593    47.099434
H     54.780410    39.198675    44.563760
P     53.491971    39.227245    42.570309
O     52.062932    39.463851    42.378002
O     54.528776    40.301344    42.298128
O     54.096129    37.839297    42.407885
P     55.782689    38.535320    39.133368
O     56.803268    38.834336    40.248623
O     56.408704    37.745720    38.032570
O     54.417419    38.175193    39.675660
P     55.203263    41.300230    37.765460
O     54.974231    42.507164    38.655481
O     56.340384    41.454894    36.782355
O     55.053106    39.936680    38.600263
O     53.761576    41.366173    36.958434
C     53.341000    40.484000    35.919000
H     53.628624    40.894503    34.943954
H     53.664816    39.439177    35.996782
C     58.586000    39.405000    44.728000
H     58.746362    40.092628    43.881633
H     58.905335    38.402677    44.392375
C     57.140800    39.374545    45.142280
O     56.241648    39.043195    44.319381
O     56.870878    39.669152    46.328830
C     49.276000    33.777000    42.633000
H     50.078816    33.084122    42.913203
H     49.366663    33.966742    41.555791
C     49.341464    35.073392    43.437544
H     48.471676    35.713998    43.183539
H     49.228424    34.849596    44.516039
C     50.639209    35.854330    43.183695
H     50.717447    36.111602    42.105862
H     50.580025    36.833513    43.708629
C     51.873264    35.062296    43.627728
H     51.595535    34.255251    44.341810
H     52.365400    34.554940    42.763999
N     52.884626    35.963927    44.298929
H     52.422450    36.571701    45.001036
H     53.589502    35.408164    44.809010
H     53.391866    36.568164    43.609634
C     50.957000    37.559000    39.635000
H     51.444752    36.948473    40.413709
O     51.919069    37.938285    38.660731
H     52.777660    38.184655    39.075814
C     49.886680    36.781121    38.877710
H     49.505582    37.354051    38.023272
H     50.269649    35.832153    38.487888
H     49.033371    36.545378    39.521480
Mg    55.945952    38.808656    42.075991
O     57.963142    38.086861    42.362996
H     57.989566    37.242604    41.857563
H     58.527238    38.674967    41.810885
H     52.247000    40.514000    36.057000
H     59.245000    39.699000    45.553000
H     48.336000    33.234000    42.783000
H     50.547000    38.485000    40.081000
78
frame=53 E_kcal=-1501.8606
C     52.217211    36.661952    48.166306
C     53.681036    36.794020    47.711993
C     53.998639    38.046561    46.872776
C     52.741400    38.875669    46.549971
C     52.950488    39.833420    45.369325
C     51.167916    37.180541    47.161065
O     50.707781    36.038550    46.489593
O     52.027744    37.347893    49.381781
O     54.011843    35.714377    46.861143
O     54.819326    38.854665    47.671879
O     51.706598    37.999167    46.131990
O     53.687677    39.118019    44.364354
H     51.986041    35.597264    48.430624
H     54.350436    36.758394    48.609902
H     54.554650    37.739152    45.950300
H     52.393293    39.446834    47.443186
H     51.965389    40.136368    44.950837
H     53.512291    40.734071    45.681098
H     50.324363    37.732052    47.628106
H     49.958011    36.249159    45.879842
H     52.435018    38.248392    49.351714
H     53.924546    34.846529    47.321803
H     55.574423    39.253994    47.097532
H     54.800620    39.201340    44.565935
P     53.475564    39.240064    42.587693
O     52.045246    39.473090    42.411135
O     54.507859    40.317085    42.304380
O     54.080264    37.851549    42.417590
P     55.783265    38.538282    39.130203
O     56.782898    38.870240    40.256494
O     56.454043    37.783878    38.030175
O     54.426357    38.115920    39.643368
P     55.197055    41.295779    37.769952
O     54.981877    42.502624    38.659959
O     56.332283    41.430450    36.780315
O     55.033718    39.930809    38.600605
O     53.753943    41.362029    36.967513
C     53.341000    40.484000    35.919000
H     53.628840    40.902874    34.947330
H     53.667774    39.439557    35.989421
C     58.586000    39.405000    44.728000
H     58.747685    40.085765    43.876614
H     58.898963    38.398269    44.400292
C     57.139209    39.387265    45.142542
O     56.240958    39.050171    44.320846
O     56.865033    39.699978    46.323405
C     49.276000    33.777000    42.633000
H     50.078944    33.083603    42.911255
H     49.365596    33.968311    41.556026
C     49.342231    35.072043    43.439991
H     48.473168    35.713972    43.186189
H     49.229108    34.846315    44.518099
C     50.640330    35.853491    43.188611
H     50.720866    36.110922    42.111137
H     50.579624    36.833145    43.713005
C     51.874554    35.063939    43.635870
H     51.596995    34.255889    44.349102
H     52.369280    34.558005    42.773253
N     52.883740    35.968289    44.306925
H     52.421318    36.570388    45.013833
H     53.595753    35.413574    44.808979
H     53.384746    36.577818    43.617646
C     50.957000    37.559000    39.635000
H     51.454905    36.955121    40.413573
O     51.911480    37.937760    38.653642
H     52.773569    38.177655    39.066734
C     49.882475    36.770273    38.896023
H     49.487445    37.333671    38.041830
H     50.264753    35.819268    38.510439
H     49.038947    36.536653    39.553873
Mg    55.914368    38.825869    42.063459
O     57.924274    38.077270    42.379506
H     57.952367    37.239661    41.865214
H     58.507198    38.664397    41.847433
H     52.247000    40.514000    36.057000
H     59.245000    39.699000    45.553000
H     48.336000    33.234000    42.783000
H     50.547000    38.485000    40.081000
78
frame=54 E_kcal=-1501.9354
C     52.218477    36.655621    48.166327
C     53.686744    36.779968    47.720367
C     54.012441    38.033182    46.882428
C     52.762080    38.873846    46.566242
C     52.977694    39.841350    45.394141
C     51.176517    37.183119    47.158286
O     50.719899    36.047922    46.472558
O     52.030644    37.341946    49.382018
O     54.013700    35.700259    46.867484
O     54.829756    38.853193    47.674373
O     51.717245    38.014056    46.141026
O     53.700040    39.127153    44.379740
H     51.978075    35.593101    48.430543
H     54.349377    36.733877    48.621312
H     54.562492    37.718720    45.958517
H     52.428429    39.441968    47.467625
H     51.989807    40.155043    44.988699
H     53.552305    40.733761    45.708754
H     50.332478    37.733262    47.625998
H     49.965442    36.266589    45.870672
H     52.431138    38.246274    49.347082
H     53.921371    34.830309    47.323729
H     55.590972    39.241506    47.103174
H     54.820779    39.201398    44.568543
P     53.462742    39.251047    42.609040
O     52.025679    39.479025    42.449115
O     54.485929    40.327589    42.309601
O     54.060551    37.862595    42.425166
P     55.786700    38.541962    39.125000
O     56.768378    38.894964    40.261530
O     56.484507    37.805165    38.031739
O     54.433800    38.080516    39.618946
P     55.189041    41.292113    37.771704
O     54.984917    42.497775    38.664920
O     56.323731    41.412312    36.781392
O     55.020792    39.926148    38.598864
O     53.747190    41.361153    36.970218
C     53.341000    40.484000    35.919000
H     53.629084    40.908787    34.949871
H     53.671927    39.440844    35.985396
C     58.586000    39.405000    44.728000
H     58.750619    40.082491    43.873663
H     58.893598    38.395777    44.403988
C     57.138499    39.403194    45.138088
O     56.242182    39.050241    44.318012
O     56.859568    39.743873    46.308453
C     49.276000    33.777000    42.633000
H     50.079349    33.083315    42.909375
H     49.364443    33.970448    41.556324
C     49.343062    35.070755    43.442350
H     48.473998    35.712772    43.190163
H     49.229523    34.842782    44.519615
C     50.641043    35.853668    43.192851
H     50.723537    36.108675    42.115085
H     50.577920    36.833770    43.716455
C     51.876305    35.065764    43.641618
H     51.598777    34.258890    44.356349
H     52.372130    34.558500    42.780814
N     52.883613    35.972039    44.312304
H     52.421210    36.570200    45.021658
H     53.598428    35.419295    44.812741
H     53.378845    36.587238    43.623189
C     50.957000    37.559000    39.635000
H     51.460025    36.961445    40.415591
O     51.906715    37.935094    38.648274
H     52.772995    38.171106    39.055816
C     49.879580    36.760490    38.911112
H     49.473098    37.315172    38.057132
H     50.263188    35.808843    38.528904
H     49.044099    36.526891    39.579056
Mg    55.894976    38.831285    42.061826
O     57.892007    38.064929    42.393461
H     57.916882    37.232825    41.869809
H     58.486474    38.654645    41.876275
H     52.247000    40.514000    36.057000
H     59.245000    39.699000    45.553000
H     48.336000    33.234000    42.783000
H     50.547000    38.485000    40.081000
78
frame=55 E_kcal=-1502.2308
C     52.221982    36.653366    48.166455
C     53.692240    36.769613    47.726136
C     54.023826    38.021544    46.890086
C     52.778967    38.871252    46.577904
C     52.998328    39.847098    45.413540
C     51.183424    37.187896    47.158052
O     50.729653    36.060499    46.457510
O     52.035579    37.338301    49.383073
O     54.014678    35.690360    46.870896
O     54.850739    38.832396    47.683626
O     51.723214    38.028440    46.149602
O     53.709004    39.133656    44.391162
H     51.974066    35.592381    48.427803
H     54.354157    36.716073    48.627462
H     54.574394    37.703624    45.968950
H     52.455404    39.433454    47.486707
H     52.011410    40.178427    45.019961
H     53.588162    40.726450    45.736780
H     50.336722    37.731175    47.628057
H     49.971955    36.283956    45.860041
H     52.429631    38.244947    49.345530
H     53.916097    34.821147    47.327012
H     55.604046    39.224531    47.109230
H     54.843711    39.202897    44.573038
P     53.448311    39.256022    42.633637
O     52.010139    39.487390    42.489877
O     54.468785    40.331457    42.311386
O     54.045417    37.869353    42.429762
P     55.787325    38.539542    39.126390
O     56.757359    38.906326    40.268664
O     56.503554    37.813952    38.036776
O     54.434365    38.067011    39.605321
P     55.184967    41.292827    37.771655
O     54.982412    42.495748    38.670062
O     56.318670    41.405411    36.782103
O     55.018199    39.921049    38.591606
O     53.741809    41.361950    36.971895
C     53.341000    40.484000    35.919000
H     53.629010    40.910739    34.950550
H     53.674924    39.442003    35.984243
C     58.586000    39.405000    44.728000
H     58.761226    40.080367    43.873750
H     58.887886    38.393361    44.406041
C     57.138348    39.417789    45.134013
O     56.241860    39.047764    44.316143
O     56.851674    39.784487    46.292364
C     49.276000    33.777000    42.633000
H     50.079822    33.083071    42.907382
H     49.363492    33.972642    41.556623
C     49.343541    35.069152    43.444801
H     48.474367    35.711604    43.194419
H     49.230757    34.839186    44.521995
C     50.641176    35.852715    43.195274
H     50.724597    36.107409    42.117338
H     50.576267    36.832576    43.717489
C     51.877577    35.067316    43.646695
H     51.600406    34.262306    44.364127
H     52.373497    34.558318    42.787390
N     52.883392    35.975650    44.316159
H     52.419597    36.572698    45.026451
H     53.599372    35.424984    44.816186
H     53.376496    36.592353    43.626514
C     50.957000    37.559000    39.635000
H     51.464064    36.967058    40.418126
O     51.904052    37.931285    38.643890
H     52.773188    38.163090    39.046356
C     49.879134    36.752433    38.922178
H     49.461794    37.299702    38.068578
H     50.264186    35.799774    38.542974
H     49.049701    36.517217    39.597462
Mg    55.879646    38.830813    42.063906
O     57.861700    38.050612    42.403341
H     57.887300    37.224622    41.871290
H     58.465991    38.642920    41.897672
H     52.247000    40.514000    36.057000
H     59.245000    39.699000    45.553000
H     48.336000    33.234000    42.783000
H     50.547000    38.485000    40.081000
78
frame=56 E_kcal=-1502.5590
C     52.223484    36.652224    48.167170
C     53.694540    36.760431    47.727770
C     54.036989    38.009652    46.894339
C     52.796857    38.871021    46.592319
C     53.019970    39.851694    45.432829
C     51.187426    37.192458    47.159595
O     50.736314    36.070037    46.448354
O     52.040135    37.336247    49.384853
O     54.014431    35.680504    46.873307
O     54.881535    38.794743    47.696939
O     51.733497    38.039174    46.160042
O     53.721387    39.136915    44.405131
H     51.972790    35.590545    48.424656
H     54.358109    36.706328    48.629379
H     54.585424    37.695697    45.969997
H     52.471400    39.429304    47.502653
H     52.036687    40.203633    45.045658
H     53.621088    40.719980    45.761211
H     50.336766    37.728600    47.633586
H     49.980509    36.300411    45.851011
H     52.431049    38.244020    49.347307
H     53.910068    34.812355    47.329377
H     55.609144    39.218819    47.116513
H     54.862864    39.205926    44.575777
P     53.436791    39.258177    42.649377
O     51.999506    39.494754    42.529935
O     54.459735    40.331805    42.311789
O     54.028585    37.869474    42.436938
P     55.786372    38.540621    39.130242
O     56.748496    38.905972    40.279367
O     56.510244    37.812333    38.046003
O     54.430433    38.070831    39.600245
P     55.186101    41.291450    37.773008
O     54.976598    42.492794    38.673355
O     56.317075    41.413938    36.781096
O     55.023902    39.916059    38.582436
O     53.741269    41.360944    36.974971
C     53.341000    40.484000    35.919000
H     53.628945    40.909640    34.950289
H     53.675574    39.442146    35.985409
C     58.586000    39.405000    44.728000
H     58.774358    40.077841    43.875048
H     58.880717    38.390616    44.409354
C     57.137342    39.429656    45.130644
O     56.241748    39.045896    44.316625
O     56.842878    39.816205    46.281106
C     49.276000    33.777000    42.633000
H     50.080132    33.082645    42.905241
H     49.362606    33.974569    41.556923
C     49.344218    35.067509    43.446852
H     48.474389    35.710305    43.198954
H     49.233202    34.835802    44.523969
C     50.640976    35.851641    43.197177
H     50.724574    36.105245    42.118945
H     50.575211    36.832607    43.717689
C     51.877397    35.068172    43.651498
H     51.600899    34.264995    44.371244
H     52.374666    34.557483    42.793487
N     52.882669    35.979061    44.318273
H     52.417928    36.577071    45.027051
H     53.599528    35.429841    44.819393
H     53.375955    36.594719    43.627172
C     50.957000    37.559000    39.635000
H     51.468395    36.971838    40.418971
O     51.898633    37.930087    38.639679
H     52.772257    38.150416    39.039924
C     49.879377    36.745190    38.930127
H     49.454791    37.287181    38.076736
H     50.267407    35.793001    38.552343
H     49.055046    36.508162    39.611092
Mg    55.858690    38.831006    42.064099
O     57.837547    38.033860    42.409841
H     57.864174    37.213762    41.870324
H     58.446447    38.629803    41.913917
H     52.247000    40.514000    36.057000
H     59.245000    39.699000    45.553000
H     48.336000    33.234000    42.783000
H     50.547000    38.485000    40.081000
78
frame=57 E_kcal=-1502.5418
C     52.226038    36.648777    48.169117
C     53.696842    36.749761    47.727201
C     54.048286    37.999565    46.898505
C     52.813207    38.872254    46.606480
C     53.045019    39.857876    45.451698
C     51.193500    37.195960    47.163134
O     50.740521    36.078671    46.445244
O     52.044544    37.332107    49.387544
O     54.012133    35.667377    46.874514
O     54.907469    38.765728    47.705514
O     51.744661    38.048078    46.170547
O     53.732209    39.142034    44.416276
H     51.970367    35.588306    48.425061
H     54.356470    36.696392    48.630698
H     54.586547    37.690365    45.966804
H     52.490424    39.428466    47.518850
H     52.066198    40.222585    45.070578
H     53.657071    40.719189    45.781775
H     50.340758    37.729072    47.635444
H     49.990783    36.314596    45.843086
H     52.435731    38.240218    49.349701
H     53.903893    34.799100    47.330717
H     55.613245    39.219997    47.124868
H     54.878232    39.207583    44.579019
P     53.429699    39.257731    42.668462
O     51.991520    39.502441    42.562335
O     54.448311    40.330355    42.314959
O     54.008886    37.867614    42.445823
P     55.785131    38.542189    39.133451
O     56.746329    38.897948    40.286511
O     56.509154    37.800268    38.059557
O     54.423536    38.083580    39.600630
P     55.188877    41.290482    37.769336
O     54.973969    42.487464    38.673520
O     56.320755    41.435188    36.779405
O     55.015031    39.915966    38.583878
O     53.745968    41.356709    36.971775
C     53.341000    40.484000    35.919000
H     53.629917    40.908375    34.950157
H     53.672824    39.441017    35.986930
C     58.586000    39.405000    44.728000
H     58.781781    40.074396    43.874076
H     58.872962    38.386566    44.414030
C     57.138285    39.440351    45.128591
O     56.245933    39.046230    44.314782
O     56.838959    39.842764    46.272542
C     49.276000    33.777000    42.633000
H     50.080322    33.082127    42.903245
H     49.361577    33.976263    41.557156
C     49.344899    35.066288    43.449280
H     48.473952    35.708781    43.203736
H     49.235795    34.832319    44.526045
C     50.641133    35.851008    43.198758
H     50.724901    36.101885    42.120097
H     50.574449    36.833669    43.717124
C     51.876940    35.068550    43.655304
H     51.600042    34.267701    44.376647
H     52.374902    34.555389    42.798936
N     52.882057    35.981812    44.319334
H     52.418167    36.582791    45.025228
H     53.597574    35.434352    44.823731
H     53.375439    36.595651    43.625431
C     50.957000    37.559000    39.635000
H     51.473065    36.974968    40.418935
O     51.896522    37.928795    38.636924
H     52.773568    38.145700    39.032853
C     49.880231    36.739142    38.936299
H     49.451063    37.277018    38.083138
H     50.271721    35.788671    38.558258
H     49.058953    36.499390    39.620610
Mg    55.842110    38.824064    42.059058
O     57.819871    38.015474    42.416486
H     57.844629    37.200881    41.866466
H     58.427647    38.615136    41.926558
H     52.247000    40.514000    36.057000
H     59.245000    39.699000    45.553000
H     48.336000    33.234000    42.783000
H     50.547000    38.485000    40.081000
78
frame=58 E_kcal=-1502.9426
C     52.227939    36.644147    48.170527
C     53.700055    36.739006    47.730167
C     54.056255    37.989626    46.903346
C     52.828257    38.874078    46.619388
C     53.066697    39.865100    45.469256
C     51.200616    37.201485    47.164246
O     50.746767    36.087302    46.442766
O     52.052040    37.325442    49.390569
O     54.009147    35.655961    46.875933
O     54.921012    38.752109    47.708527
O     51.755268    38.058880    46.177861
O     53.741222    39.146020    44.429442
H     51.966218    35.585058    48.428002
H     54.357816    36.678841    48.634855
H     54.584611    37.680729    45.966295
H     52.515599    39.427614    47.536134
H     52.088873    40.242546    45.096620
H     53.694358    40.715820    45.800175
H     50.349286    37.736573    47.636842
H     50.001250    36.327400    45.835761
H     52.443638    38.233224    49.352610
H     53.897330    34.787577    47.331452
H     55.617998    39.216662    47.128708
H     54.901156    39.206549    44.580381
P     53.420022    39.259158    42.687002
O     51.981279    39.510543    42.587227
O     54.440882    40.323268    42.319067
O     53.994668    37.868287    42.454863
P     55.777924    38.539705    39.137378
O     56.744287    38.891758    40.286653
O     56.498305    37.787875    38.069850
O     54.413098    38.095301    39.613554
P     55.189794    41.295830    37.770217
O     54.972435    42.488079    38.678421
O     56.324668    41.449766    36.784110
O     55.029297    39.918593    38.579595
O     53.746895    41.363396    36.969610
C     53.341000    40.484000    35.919000
H     53.630294    40.905836    34.948621
H     53.667574    39.439468    35.986032
C     58.586000    39.405000    44.728000
H     58.783218    40.069020    43.870024
H     58.867217    38.383493    44.419308
C     57.138424    39.450584    45.127334
O     56.246724    39.049757    44.313447
O     56.836330    39.865684    46.264514
C     49.276000    33.777000    42.633000
H     50.080525    33.081734    42.901557
H     49.360432    33.978060    41.557425
C     49.344961    35.064765    43.451571
H     48.473681    35.707150    43.208855
H     49.238130    34.829022    44.528102
C     50.640550    35.850286    43.199240
H     50.725557    36.098627    42.120172
H     50.573523    36.833766    43.715095
C     51.876261    35.069007    43.658609
H     51.598689    34.269955    44.381807
H     52.373712    34.552876    42.804040
N     52.881376    35.983782    44.320425
H     52.417979    36.589227    45.023218
H     53.595274    35.438112    44.828070
H     53.376167    36.593748    43.622889
C     50.957000    37.559000    39.635000
H     51.476283    36.977391    40.418741
O     51.892789    37.930305    38.633754
H     52.772494    38.146735    39.023918
C     49.881651    36.734547    38.939696
H     49.447813    37.269928    38.087371
H     50.276403    35.785083    38.562286
H     49.063562    36.491707    39.626062
Mg    55.829190    38.810967    42.054925
O     57.803721    37.995075    42.420800
H     57.827775    37.186228    41.861486
H     58.411686    38.600086    41.937562
H     52.247000    40.514000    36.057000
H     59.245000    39.699000    45.553000
H     48.336000    33.234000    42.783000
H     50.547000    38.485000    40.081000
78
frame=59 E_kcal=-1503.0830
C     52.231393    36.641830    48.173491
C     53.704474    36.730036    47.734685
C     54.063447    37.980361    46.909189
C     52.841824    38.873993    46.629071
C     53.086096    39.868521    45.483371
C     51.207870    37.208063    47.167358
O     50.754515    36.098805    46.437138
O     52.059349    37.320178    49.395646
O     54.008449    35.647931    46.876927
O     54.931077    38.741880    47.711924
O     51.762508    38.069872    46.186070
O     53.750089    39.149208    44.437502
H     51.961475    35.583886    48.426380
H     54.363088    36.658948    48.637936
H     54.588050    37.665865    45.971946
H     52.537680    39.424948    47.551769
H     52.110608    40.266005    45.124659
H     53.727238    40.707114    45.817794
H     50.359216    37.746419    47.640074
H     50.010631    36.340222    45.829340
H     52.454832    38.225926    49.357701
H     53.889879    34.779609    47.330816
H     55.621513    39.206953    47.126678
H     54.920629    39.207017    44.579763
P     53.413928    39.261127    42.705847
O     51.975272    39.517108    42.609967
O     54.439869    40.316999    42.323947
O     53.980268    37.865925    42.465045
P     55.773522    38.539067    39.139167
O     56.740003    38.889278    40.290060
O     56.475493    37.772311    38.069700
O     54.404935    38.112431    39.624303
P     55.193889    41.301181    37.773021
O     54.967555    42.488865    38.685190
O     56.329857    41.458189    36.787785
O     55.030903    39.922125    38.579155
O     53.753142    41.362658    36.967075
C     53.341000    40.484000    35.919000
H     53.629806    40.902288    34.947739
H     53.667039    39.439846    35.989523
C     58.586000    39.405000    44.728000
H     58.784294    40.062475    43.865070
H     58.864418    38.380950    44.424489
C     57.138606    39.459672    45.128490
O     56.248150    39.053268    44.313185
O     56.832745    39.884738    46.258503
C     49.276000    33.777000    42.633000
H     50.080803    33.081497    42.899917
H     49.359434    33.979861    41.557665
C     49.345023    35.063565    43.453214
H     48.472747    35.705756    43.213758
H     49.240470    34.826246    44.529653
C     50.639965    35.849446    43.199534
H     50.725616    36.095025    42.119776
H     50.571943    36.834033    43.712304
C     51.875257    35.068922    43.661994
H     51.597095    34.271802    44.387976
H     52.372336    34.550352    42.809018
N     52.880681    35.984928    44.320897
H     52.417409    36.594526    45.019929
H     53.592724    35.440664    44.832231
H     53.378479    36.591096    43.621152
C     50.957000    37.559000    39.635000
H     51.479510    36.979678    40.417763
O     51.888986    37.933872    38.631232
H     52.768156    38.151573    39.019089
C     49.883214    36.731261    38.941688
H     49.445463    37.264849    38.089821
H     50.281016    35.782646    38.563765
H     49.067445    36.485004    39.629369
Mg    55.814769    38.799131    42.049881
O     57.785891    37.973987    42.421491
H     57.814774    37.170320    41.856672
H     58.399403    38.582638    41.948389
H     52.247000    40.514000    36.057000
H     59.245000    39.699000    45.553000
H     48.336000    33.234000    42.783000
H     50.547000    38.485000    40.081000
78
frame=60 E_kcal=-1504.3671
C     52.234298    36.641304    48.175456
C     53.707954    36.721334    47.738592
C     54.071927    37.970212    46.915100
C     52.855219    38.871766    46.637948
C     53.105369    39.872587    45.499138
C     51.213450    37.214851    47.170779
O     50.760537    36.109103    46.434210
O     52.065474    37.317030    49.399618
O     54.008000    35.639917    46.877914
O     54.946690    38.726953    47.715621
O     51.768284    38.079765    46.192816
O     53.757373    39.151136    44.447145
H     51.957980    35.583437    48.421928
H     54.368371    36.645380    48.639817
H     54.597008    37.652616    45.978876
H     52.553274    39.421422    47.561324
H     52.135247    40.287320    45.148462
H     53.759832    40.699310    45.835980
H     50.364836    37.750891    47.647043
H     50.019624    36.356759    45.826115
H     52.468574    38.220137    49.367363
H     53.881653    34.771728    47.327520
H     55.628116    39.198372    47.126754
H     54.933010    39.210229    44.580318
P     53.411300    39.261356    42.720316
O     51.974304    39.525400    42.631264
O     54.438932    40.313965    42.330066
O     53.966400    37.860673    42.473733
P     55.762836    38.538581    39.141452
O     56.739254    38.885952    40.282016
O     56.447456    37.763046    38.068935
O     54.390850    38.131102    39.630980
P     55.192622    41.300215    37.772259
O     54.961928    42.485804    38.684412
O     56.334028    41.463281    36.796439
O     55.028989    39.924432    38.583029
O     53.754332    41.364949    36.963502
C     53.341000    40.484000    35.919000
H     53.629286    40.899742    34.946054
H     53.669779    39.440247    35.994804
C     58.586000    39.405000    44.728000
H     58.787950    40.056926    43.861944
H     58.861800    38.378775    44.429481
C     57.139940    39.465888    45.128628
O     56.252088    39.053300    44.312580
O     56.831658    39.899117    46.253813
C     49.276000    33.777000    42.633000
H     50.081176    33.081422    42.898349
H     49.358657    33.981239    41.557867
C     49.345023    35.062514    43.454835
H     48.471623    35.704407    43.217604
H     49.242524    34.823828    44.531367
C     50.639444    35.848431    43.200072
H     50.725551    36.090738    42.119563
H     50.570767    36.834935    43.709631
C     51.874286    35.068621    43.664995
H     51.595276    34.274699    44.393617
H     52.371052    34.546624    42.813755
N     52.880350    35.985480    44.321129
H     52.417034    36.598709    45.016819
H     53.589806    35.441512    44.837590
H     53.380449    36.589657    43.619974
C     50.957000    37.559000    39.635000
H     51.483849    36.980918    40.416496
O     51.887220    37.937774    38.630068
H     52.765430    38.159181    39.020374
C     49.884938    36.728702    38.943264
H     49.444760    37.260873    38.091937
H     50.284929    35.782208    38.563002
H     49.070081    36.479181    39.631448
Mg    55.800725    38.786552    42.042302
O     57.767576    37.953542    42.421485
H     57.803627    37.153190    41.852068
H     58.388336    38.562904    41.959299
H     52.247000    40.514000    36.057000
H     59.245000    39.699000    45.553000
H     48.336000    33.234000    42.783000
H     50.547000    38.485000    40.081000
78
frame=61 E_kcal=-1503.9039
C     52.237962    36.641023    48.177210
C     53.711800    36.714582    47.740236
C     54.082490    37.963004    46.917415
C     52.868583    38.872122    46.647255
C     53.125782    39.876995    45.512669
C     51.218881    37.220130    47.174442
O     50.761434    36.117878    46.434933
O     52.070201    37.313493    49.403248
O     54.005829    35.631554    46.879630
O     54.966267    38.707833    47.720231
O     51.776874    38.087204    46.200068
O     53.764782    39.151878    44.456983
H     51.955982    35.583838    48.420531
H     54.370486    36.636780    48.642950
H     54.605091    37.644776    45.979604
H     52.566605    39.418304    47.572364
H     52.159976    40.305122    45.167475
H     53.792939    40.693145    45.854877
H     50.368425    37.750995    47.653713
H     50.025543    36.374069    45.823232
H     52.483586    38.212143    49.377646
H     53.872103    34.761156    47.324308
H     55.636864    39.193547    47.131570
H     54.944590    39.210519    44.582650
P     53.407889    39.263318    42.733210
O     51.972001    39.535532    42.650362
O     54.439802    40.305810    42.335285
O     53.956795    37.862054    42.478464
P     55.750049    38.537297    39.140521
O     56.735430    38.879437    40.276681
O     56.420896    37.753466    38.062503
O     54.381068    38.146484    39.651110
P     55.189393    41.305421    37.772799
O     54.952452    42.490926    38.687438
O     56.336113    41.460939    36.802532
O     55.032139    39.927985    38.579247
O     53.750548    41.373099    36.960616
C     53.341000    40.484000    35.919000
H     53.628502    40.896701    34.944544
H     53.670870    39.441396    35.996458
C     58.586000    39.405000    44.728000
H     58.793224    40.053964    43.861051
H     58.858518    38.376429    44.433304
C     57.140384    39.468963    45.126451
O     56.253870    39.052080    44.311598
O     56.831873    39.908578    46.249585
C     49.276000    33.777000    42.633000
H     50.081545    33.081371    42.897103
H     49.358004    33.982333    41.558074
C     49.345202    35.061508    43.456485
H     48.471376    35.702934    43.220632
H     49.243824    34.821817    44.532872
C     50.639242    35.847469    43.200093
H     50.725716    36.086701    42.118950
H     50.570574    36.835121    43.707303
C     51.873289    35.068548    43.668140
H     51.593034    34.277208    44.398622
H     52.369605    34.542621    42.818669
N     52.879579    35.986090    44.322786
H     52.416817    36.602352    45.016195
H     53.587028    35.442995    44.842043
H     53.382079    36.587066    43.620440
C     50.957000    37.559000    39.635000
H     51.486961    36.981904    40.414196
O     51.880592    37.944735    38.628736
H     52.759616    38.161182    39.020169
C     49.885754    36.726254    38.943471
H     49.444088    37.259199    38.093408
H     50.288519    35.781898    38.561625
H     49.073184    36.474398    39.632413
Mg    55.793990    38.774472    42.030520
O     57.747991    37.934527    42.418859
H     57.792444    37.133777    41.849928
H     58.376946    38.543290    41.970410
H     52.247000    40.514000    36.057000
H     59.245000    39.699000    45.553000
H     48.336000    33.234000    42.783000
H     50.547000    38.485000    40.081000
78
frame=62 E_kcal=-1504.7224
C     52.240622    36.638825    48.179405
C     53.714608    36.707750    47.740867
C     54.091969    37.955604    46.921021
C     52.881917    38.871509    46.657931
C     53.143639    39.878726    45.526177
C     51.223848    37.224055    47.178065
O     50.760711    36.127272    46.434604
O     52.075699    37.308965    49.407202
O     54.004767    35.624359    46.880088
O     54.983664    38.689661    47.725351
O     51.787047    38.092853    46.208240
O     53.770623    39.153942    44.462938
H     51.956036    35.582775    48.422417
H     54.371426    36.628674    48.644686
H     54.607183    37.642130    45.977937
H     52.584223    39.415349    47.586199
H     52.182994    40.322107    45.186033
H     53.822682    40.684970    45.869713
H     50.374826    37.755366    47.658124
H     50.028834    36.389482    45.820346
H     52.498857    38.202854    49.386850
H     53.861188    34.755249    47.324561
H     55.645362    39.187743    47.137395
H     54.959125    39.204988    44.581840
P     53.407236    39.266233    42.744529
O     51.971543    39.545340    42.668895
O     54.444066    40.302696    42.339561
O     53.947663    37.862013    42.481825
P     55.737795    38.538260    39.138333
O     56.735202    38.869017    40.266298
O     56.391763    37.744741    38.058088
O     54.371933    38.158915    39.664651
P     55.185629    41.309044    37.773138
O     54.946118    42.495556    38.686374
O     56.333493    41.462698    36.805314
O     55.015110    39.933768    38.583707
O     53.755100    41.373205    36.953956
C     53.341000    40.484000    35.919000
H     53.628016    40.894255    34.943481
H     53.671906    39.441674    35.998356
C     58.586000    39.405000    44.728000
H     58.797332    40.053165    43.861676
H     58.855992    38.375430    44.434771
C     57.140981    39.472034    45.125765
O     56.257213    39.049822    44.309870
O     56.829370    39.915414    46.246899
C     49.276000    33.777000    42.633000
H     50.081663    33.081114    42.896106
H     49.357413    33.983352    41.558147
C     49.345182    35.060831    43.457439
H     48.471280    35.702327    43.222996
H     49.244929    34.820357    44.533577
C     50.639254    35.846711    43.200095
H     50.726462    36.083267    42.118573
H     50.570550    36.835144    43.705050
C     51.872197    35.068270    43.671987
H     51.590343    34.278148    44.404038
H     52.368979    34.540052    42.824473
N     52.878671    35.986568    44.325633
H     52.416202    36.605212    45.017175
H     53.585785    35.444342    44.845603
H     53.383194    36.584484    43.622054
C     50.957000    37.559000    39.635000
H     51.489871    36.981723    40.412579
O     51.882341    37.949726    38.629183
H     52.763207    38.164792    39.018532
C     49.887885    36.725847    38.943545
H     49.442813    37.258538    38.094898
H     50.291341    35.781813    38.559897
H     49.075380    36.469869    39.632823
Mg    55.781709    38.767348    42.019050
O     57.729958    37.914085    42.419031
H     57.780529    37.114775    41.849292
H     58.365223    38.523051    41.979646
H     52.247000    40.514000    36.057000
H     59.245000    39.699000    45.553000
H     48.336000    33.234000    42.783000
H     50.547000    38.485000    40.081000
78
frame=63 E_kcal=-1504.7212
C     52.242894    36.635377    48.181516
C     53.717172    36.701659    47.742667
C     54.098327    37.949221    46.925203
C     52.893384    38.871875    46.666012
C     53.160250    39.880407    45.536232
C     51.228431    37.228314    47.181888
O     50.762304    36.136598    46.432682
O     52.081778    37.304148    49.410731
O     54.005071    35.617940    46.881911
O     54.996917    38.674627    47.730397
O     51.795435    38.098748    46.215268
O     53.777939    39.153190    44.469522
H     51.956110    35.578954    48.424029
H     54.374601    36.617486    48.645823
H     54.607702    37.637668    45.978527
H     52.604926    39.412631    47.598735
H     52.202309    40.336494    45.207241
H     53.850033    40.675683    45.880480
H     50.383110    37.766303    47.662616
H     50.031381    36.404104    45.819465
H     52.514228    38.193354    49.394556
H     53.850352    34.750697    47.325964
H     55.651770    39.177830    47.142363
H     54.977765    39.197057    44.579591
P     53.408287    39.270292    42.757732
O     51.973288    39.556211    42.684585
O     54.445157    40.305148    42.343519
O     53.939015    37.862490    42.484898
P     55.725263    38.536429    39.137956
O     56.733166    38.861496    40.257493
O     56.358591    37.741341    38.049248
O     54.361130    38.167631    39.678225
P     55.179635    41.310395    37.774834
O     54.941938    42.500062    38.684423
O     56.330358    41.464543    36.810790
O     55.015894    39.937208    38.589104
O     53.750095    41.383630    36.952559
C     53.341000    40.484000    35.919000
H     53.627107    40.891643    34.941028
H     53.671513    39.441362    35.999811
C     58.586000    39.405000    44.728000
H     58.798265    40.054034    43.862201
H     58.855136    38.375553    44.433463
C     57.141606    39.473439    45.126365
O     56.259959    39.046059    44.308783
O     56.826437    39.921850    46.243733
C     49.276000    33.777000    42.633000
H     50.081536    33.080897    42.895399
H     49.356894    33.983977    41.558275
C     49.345146    35.060549    43.457935
H     48.471054    35.702513    43.224385
H     49.245692    34.819502    44.534081
C     50.639544    35.845937    43.201101
H     50.728581    36.079989    42.119110
H     50.570082    36.835947    43.703128
C     51.871363    35.067538    43.676070
H     51.587974    34.279444    44.409394
H     52.369566    34.538029    42.830681
N     52.877778    35.986297    44.328647
H     52.415877    36.606432    45.018836
H     53.585121    35.445204    44.850020
H     53.382397    36.583341    43.624290
C     50.957000    37.559000    39.635000
H     51.490703    36.981811    40.411746
O     51.880865    37.950871    38.629545
H     52.763171    38.162561    39.019505
C     49.888372    36.724980    38.942874
H     49.441691    37.258632    38.095921
H     50.293869    35.782894    38.557359
H     49.078352    36.466520    39.632445
Mg    55.771356    38.761794    42.004173
O     57.711223    37.893706    42.421244
H     57.765426    37.096828    41.849101
H     58.353171    38.502141    41.987677
H     52.247000    40.514000    36.057000
H     59.245000    39.699000    45.553000
H     48.336000    33.234000    42.783000
H     50.547000    38.485000    40.081000
78
frame=64 E_kcal=-1504.9426
C     52.245925    36.633584    48.183521
C     53.720333    36.693649    47.745694
C     54.104591    37.940251    46.928948
C     52.905471    38.871050    46.673797
C     53.176237    39.881038    45.544567
C     51.234752    37.235535    47.185726
O     50.764360    36.147510    46.433430
O     52.086710    37.299081    49.414974
O     54.005440    35.609499    46.884423
O     55.006866    38.662168    47.734248
O     51.802206    38.106909    46.221686
O     53.779619    39.149389    44.475118
H     51.954427    35.577791    48.421680
H     54.378631    36.606034    48.648036
H     54.612098    37.627258    45.981757
H     52.620936    39.412656    47.607377
H     52.219960    40.347503    45.225814
H     53.877422    40.668767    45.888293
H     50.392330    37.775267    47.667971
H     50.033918    36.418491    45.821340
H     52.529023    38.183725    49.400769
H     53.840917    34.742619    47.325448
H     55.658190    39.167301    47.146904
H     55.006955    39.190877    44.581110
P     53.406611    39.275216    42.771932
O     51.973028    39.568425    42.697524
O     54.446766    40.305040    42.349475
O     53.933965    37.867187    42.488165
P     55.715170    38.536107    39.132043
O     56.731071    38.853525    40.249776
O     56.328734    37.735846    38.034949
O     54.354791    38.175479    39.694987
P     55.176854    41.316957    37.775982
O     54.937000    42.503642    38.687822
O     56.328940    41.464785    36.813450
O     55.010755    39.946072    38.595700
O     53.748945    41.380815    36.950273
C     53.341000    40.484000    35.919000
H     53.626825    40.888630    34.941301
H     53.672410    39.443096    36.004458
C     58.586000    39.405000    44.728000
H     58.796144    40.055834    43.862716
H     58.856355    38.376626    44.430523
C     57.143171    39.474694    45.127772
O     56.261302    39.039508    44.308925
O     56.824689    39.927462    46.240495
C     49.276000    33.777000    42.633000
H     50.081655    33.080877    42.895204
H     49.356617    33.984172    41.558292
C     49.345577    35.060333    43.458435
H     48.471694    35.702421    43.224746
H     49.245363    34.819224    44.534688
C     50.640381    35.845109    43.202262
H     50.731834    36.077106    42.119800
H     50.569957    36.836193    43.702002
C     51.871452    35.067152    43.680508
H     51.586109    34.280773    44.414910
H     52.370140    34.535111    42.836284
N     52.877507    35.987169    44.331832
H     52.415055    36.607069    45.022160
H     53.583332    35.446092    44.855085
H     53.379902    36.584316    43.626065
C     50.957000    37.559000    39.635000
H     51.489654    36.982062    40.412842
O     51.878645    37.949372    38.627860
H     52.759682    38.157226    39.021391
C     49.887921    36.724173    38.942587
H     49.440699    37.259290    38.096512
H     50.295998    35.784611    38.553684
H     49.079391    36.463236    39.632565
Mg    55.758357    38.758522    41.989813
O     57.691498    37.875471    42.420932
H     57.745490    37.078750    41.849196
H     58.340124    38.481166    41.997008
H     52.247000    40.514000    36.057000
H     59.245000    39.699000    45.553000
H     48.336000    33.234000    42.783000
H     50.547000    38.485000    40.081000
78
frame=65 E_kcal=-1505.1251
C     52.249325    36.632330    48.184708
C     53.724259    36.685691    47.748299
C     54.112481    37.932369    46.932000
C     52.917794    38.870694    46.679806
C     53.188950    39.880530    45.548647
C     51.240023    37.242556    47.190014
O     50.765357    36.157166    46.435673
O     52.093199    37.294600    49.418084
O     54.004746    35.599791    46.886627
O     55.018871    38.648482    47.737828
O     51.809030    38.114294    46.228292
O     53.776432    39.145685    44.478940
H     51.949617    35.577635    48.416908
H     54.381626    36.595280    48.651440
H     54.618519    37.614583    45.986193
H     52.634362    39.413192    47.612671
H     52.235717    40.359329    45.243150
H     53.901769    40.658904    45.890946
H     50.399094    37.781686    47.676500
H     50.035927    36.433300    45.825160
H     52.542585    38.175904    49.409184
H     53.832964    34.731834    47.323808
H     55.664471    39.160340    47.152227
H     55.068527    39.182560    44.583004
P     53.405191    39.279132    42.793973
O     51.972303    39.580489    42.705763
O     54.448396    40.305539    42.359337
O     53.925095    37.869703    42.491551
P     55.700947    38.538366    39.125538
O     56.730679    38.842592    40.232496
O     56.300784    37.735458    38.024691
O     54.347041    38.181444    39.704052
P     55.177007    41.319474    37.778997
O     54.932851    42.504713    38.689213
O     56.328511    41.466788    36.816224
O     55.004828    39.954393    38.604399
O     53.748026    41.382285    36.953642
C     53.341000    40.484000    35.919000
H     53.629083    40.887772    34.940642
H     53.673447    39.441834    36.008091
C     58.586000    39.405000    44.728000
H     58.794102    40.058610    43.863116
H     58.858784    38.377755    44.427376
C     57.146543    39.474760    45.135171
O     56.256492    39.033866    44.313714
O     56.821886    39.931623    46.239847
C     49.276000    33.777000    42.633000
H     50.081724    33.080932    42.895175
H     49.356639    33.984157    41.558323
C     49.346003    35.060105    43.458544
H     48.473044    35.702602    43.224134
H     49.244622    34.819433    44.534618
C     50.641234    35.844056    43.202850
H     50.735224    36.074620    42.120693
H     50.570799    36.835382    43.701871
C     51.870980    35.066698    43.684722
H     51.585430    34.282204    44.420713
H     52.370549    34.532300    42.842711
N     52.876271    35.988332    44.335502
H     52.413483    36.608758    45.025532
H     53.582264    35.448441    44.858914
H     53.376821    36.587598    43.628881
C     50.957000    37.559000    39.635000
H     51.488159    36.982619    40.414502
O     51.883316    37.945074    38.630810
H     52.766775    38.156179    39.024164
C     49.888772    36.725096    38.942706
H     49.439024    37.260093    38.098363
H     50.296442    35.786587    38.550597
H     49.079541    36.459945    39.632184
Mg    55.742276    38.756302    41.970595
O     57.666536    37.860587    42.420336
H     57.722063    37.062417    41.848683
H     58.326464    38.458846    42.005443
H     52.247000    40.514000    36.057000
H     59.245000    39.699000    45.553000
H     48.336000    33.234000    42.783000
H     50.547000    38.485000    40.081000
78
frame=66 E_kcal=-1506.4345
C     52.251288    36.630743    48.186889
C     53.726059    36.678585    47.750054
C     54.118511    37.924782    46.933684
C     52.927164    38.869847    46.683416
C     53.193668    39.878952    45.545161
C     51.243310    37.247072    47.195280
O     50.764135    36.166317    46.437520
O     52.100555    37.290078    49.422445
O     54.004120    35.591976    46.888162
O     55.032883    38.631794    47.741769
O     51.814935    38.118352    46.235995
O     53.762881    39.138630    44.481616
H     51.945479    35.577008    48.414191
H     54.382786    36.584896    48.652784
H     54.622974    37.606406    45.987787
H     52.651342    39.412899    47.617149
H     52.243387    40.376753    45.265060
H     53.924081    40.643988    45.886645
H     50.405253    37.786843    47.685600
H     50.035866    36.447372    45.828379
H     52.555294    38.168372    49.418579
H     53.826182    34.724888    47.323518
H     55.664416    39.157926    47.166608
H     55.200926    39.156992    44.585733
P     53.402929    39.279839    42.832553
O     51.970485    39.593526    42.704365
O     54.452927    40.302143    42.373326
O     53.916839    37.869082    42.490642
P     55.693154    38.535924    39.119328
O     56.730467    38.832137    40.223024
O     56.274548    37.734877    38.006769
O     54.346233    38.184204    39.719411
P     55.170293    41.324953    37.777343
O     54.931519    42.508518    38.690543
O     56.327987    41.468564    36.821920
O     55.003486    39.961907    38.610515
O     53.744159    41.383788    36.952137
C     53.341000    40.484000    35.919000
H     53.631993    40.887824    34.942812
H     53.672071    39.443533    36.007985
C     58.586000    39.405000    44.728000
H     58.792077    40.062020    43.864280
H     58.861485    38.378229    44.424425
C     57.156568    39.481329    45.153859
O     56.260220    39.035825    44.316107
O     56.824255    39.938279    46.246463
C     49.276000    33.777000    42.633000
H     50.081538    33.080784    42.895154
H     49.356837    33.983942    41.558244
C     49.345758    35.060300    43.458227
H     48.473444    35.703885    43.222506
H     49.243970    34.819830    44.534222
C     50.642280    35.842874    43.203865
H     50.738287    36.072649    42.121550
H     50.571818    36.834890    43.702221
C     51.871175    35.066488    43.689355
H     51.584699    34.283537    44.427114
H     52.371772    34.530145    42.849734
N     52.874128    35.991157    44.339109
H     52.410916    36.611079    45.028843
H     53.583030    35.453640    44.860918
H     53.374017    36.592979    43.632323
C     50.957000    37.559000    39.635000
H     51.485253    36.983168    40.417244
O     51.885135    37.942859    38.631435
H     52.766115    38.153812    39.027412
C     49.887833    36.725059    38.941543
H     49.436249    37.262681    38.099707
H     50.296493    35.787675    38.548065
H     49.081282    36.458030    39.631858
Mg    55.710930    38.755261    41.932035
O     57.635050    37.848689    42.418914
H     57.694424    37.049407    41.849735
H     58.311158    38.437039    42.012695
H     52.247000    40.514000    36.057000
H     59.245000    39.699000    45.553000
H     48.336000    33.234000    42.783000
H     50.547000    38.485000    40.081000
78
frame=67 E_kcal=-1506.8316
C     52.251980    36.629337    48.188816
C     53.726043    36.675516    47.749216
C     54.120680    37.921112    46.933230
C     52.931212    38.869149    46.686398
C     53.189902    39.878440    45.545750
C     51.244645    37.248973    47.198860
O     50.762245    36.170592    46.438542
O     52.104045    37.286612    49.426331
O     54.002924    35.588950    46.887943
O     55.036807    38.620492    47.747227
O     51.817007    38.120153    46.241157
O     53.753164    39.127081    44.487250
H     51.944725    35.575641    48.415418
H     54.383155    36.579676    48.652471
H     54.623553    37.604436    45.986401
H     52.662786    39.413327    47.620633
H     52.242020    40.390713    45.282643
H     53.936292    40.631509    45.878160
H     50.408308    37.789813    47.690802
H     50.034460    36.455473    45.829808
H     52.562814    38.163157    49.423258
H     53.822943    34.722597    47.324650
H     55.660197    39.156895    47.178975
H     55.275067    39.132659    44.597965
P     53.398975    39.279176    42.849821
O     51.970884    39.601925    42.696808
O     54.454681    40.295233    42.387899
O     53.909633    37.868568    42.490777
P     55.689143    38.536535    39.112411
O     56.733784    38.826133    40.211403
O     56.259688    37.734946    37.994340
O     54.347603    38.184059    39.727133
P     55.169450    41.326624    37.779803
O     54.929022    42.512048    38.691044
O     56.327179    41.469001    36.823718
O     55.002327    39.965072    38.613526
O     53.743104    41.385889    36.953136
C     53.341000    40.484000    35.919000
H     53.633349    40.888466    34.942254
H     53.672197    39.442083    36.007276
C     58.586000    39.405000    44.728000
H     58.791212    40.064300    43.863734
H     58.861628    38.378288    44.422259
C     57.180452    39.493617    45.171333
O     56.307160    39.034538    44.305640
O     56.825192    39.945060    46.257775
C     49.276000    33.777000    42.633000
H     50.081374    33.080749    42.895346
H     49.356973    33.983663    41.558226
C     49.345744    35.060692    43.457890
H     48.473816    35.704439    43.221335
H     49.243203    34.820250    44.533922
C     50.642653    35.842632    43.204695
H     50.740223    36.071580    42.122436
H     50.572131    36.834710    43.702222
C     51.871538    35.067050    43.692454
H     51.584316    34.285212    44.430906
H     52.373164    34.529309    42.854181
N     52.873856    35.993850    44.340707
H     52.408945    36.612769    45.031384
H     53.583925    35.458158    44.862160
H     53.371522    36.598017    43.632880
C     50.957000    37.559000    39.635000
H     51.483450    36.983507    40.418496
O     51.886041    37.942370    38.632942
H     52.764804    38.152830    39.031814
C     49.888229    36.725968    38.941139
H     49.434787    37.264203    38.100499
H     50.296231    35.788623    38.546166
H     49.082010    36.457281    39.632236
Mg    55.676357    38.752318    41.898126
O     57.613269    37.844463    42.416413
H     57.674170    37.042914    41.852302
H     58.296913    38.425051    42.017713
H     52.247000    40.514000    36.057000
H     59.245000    39.699000    45.553000
H     48.336000    33.234000    42.783000
H     50.547000    38.485000    40.081000
78
frame=68 E_kcal=-1506.7536
C     52.251799    36.628765    48.188925
C     53.725643    36.675417    47.748979
C     54.119537    37.921321    46.933424
C     52.929515    38.869425    46.687799
C     53.190955    39.876744    45.546414
C     51.243889    37.248401    47.199534
O     50.761608    36.170569    46.439125
O     52.104092    37.286293    49.425977
O     54.002113    35.588650    46.887411
O     55.035408    38.621003    47.747180
O     51.815801    38.120134    46.241769
O     53.755979    39.124642    44.488631
H     51.945425    35.575195    48.416472
H     54.383108    36.580313    48.651631
H     54.622971    37.605434    45.986008
H     52.662444    39.413701    47.622330
H     52.241611    40.390321    45.284053
H     53.936110    40.631533    45.876579
H     50.407773    37.789763    47.691106
H     50.034347    36.455678    45.830114
H     52.562918    38.162486    49.423293
H     53.823265    34.722786    47.324829
H     55.660175    39.157376    47.180274
H     55.270073    39.127006    44.592977
P     53.398552    39.278308    42.846891
O     51.969998    39.602449    42.695051
O     54.454939    40.297540    42.391331
O     53.904725    37.864537    42.492265
P     55.689228    38.536237    39.110253
O     56.735356    38.826397    40.207304
O     56.259104    37.734723    37.992423
O     54.347875    38.183654    39.725240
P     55.169547    41.326961    37.779381
O     54.928439    42.511622    38.691108
O     56.327006    41.468953    36.823396
O     55.000995    39.965461    38.613933
O     53.744344    41.384143    36.952791
C     53.341000    40.484000    35.919000
H     53.632676    40.888199    34.942719
H     53.672520    39.442854    36.007440
C     58.586000    39.405000    44.728000
H     58.792173    40.063417    43.862823
H     58.860237    38.378099    44.421389
C     57.177132    39.491546    45.172559
O     56.299897    39.036620    44.312517
O     56.824151    39.944923    46.258984
C     49.276000    33.777000    42.633000
H     50.081414    33.080814    42.895497
H     49.356989    33.983603    41.558232
C     49.345832    35.060461    43.457910
H     48.474046    35.704281    43.221258
H     49.242950    34.820408    44.533861
C     50.642758    35.842648    43.204765
H     50.740446    36.071610    42.122458
H     50.571859    36.834989    43.702210
C     51.871768    35.067536    43.692496
H     51.584528    34.285875    44.431208
H     52.373402    34.529575    42.854504
N     52.873801    35.994479    44.340880
H     52.409258    36.612782    45.031285
H     53.584124    35.458862    44.862316
H     53.370565    36.598575    43.631866
C     50.957000    37.559000    39.635000
H     51.483743    36.983331    40.418414
O     51.887320    37.942078    38.633452
H     52.766535    38.154208    39.034330
C     49.887695    36.725724    38.941271
H     49.435067    37.264115    38.100680
H     50.296105    35.789188    38.545929
H     49.082165    36.457495    39.632141
Mg    55.673801    38.748935    41.891502
O     57.608859    37.844590    42.415219
H     57.671412    37.042901    41.852938
H     58.293430    38.426380    42.017766
H     52.247000    40.514000    36.057000
H     59.245000    39.699000    45.553000
H     48.336000    33.234000    42.783000
H     50.547000    38.485000    40.081000
78
frame=69 E_kcal=-1506.9762
C     52.251133    36.627496    48.189290
C     53.724478    36.675156    47.747685
C     54.117346    37.921933    46.933393
C     52.927766    38.869607    46.689754
C     53.191694    39.873956    45.546610
C     51.242151    37.247375    47.201149
O     50.759506    36.169680    46.440591
O     52.103936    37.285317    49.426333
O     54.000162    35.588593    46.886110
O     55.031580    38.621846    47.748766
O     51.813028    38.121005    46.244413
O     53.752935    39.119606    44.487644
H     51.946861    35.573594    48.418890
H     54.383221    36.581372    48.649805
H     54.620501    37.608358    45.985742
H     52.660928    39.414236    47.625544
H     52.243323    40.386924    45.285980
H     53.936254    40.630591    45.873353
H     50.406062    37.789114    47.692756
H     50.033577    36.456166    45.830549
H     52.563377    38.161254    49.423721
H     53.824194    34.722671    47.325344
H     55.660026    39.158296    47.184273
H     55.250117    39.116847    44.585822
P     53.396699    39.276263    42.846809
O     51.970531    39.603457    42.690963
O     54.455645    40.294151    42.398896
O     53.894499    37.860532    42.493326
P     55.690019    38.536792    39.102639
O     56.738362    38.827172    40.197264
O     56.257223    37.733391    37.984910
O     54.351491    38.181563    39.724152
P     55.170382    41.327291    37.779362
O     54.926903    42.510578    38.690869
O     56.327249    41.468857    36.822664
O     54.999844    39.966342    38.614070
O     53.744879    41.383615    36.953116
C     53.341000    40.484000    35.919000
H     53.631388    40.888270    34.942160
H     53.673382    39.442805    36.007336
C     58.586000    39.405000    44.728000
H     58.792262    40.060848    43.862394
H     58.856434    38.377990    44.419832
C     57.173155    39.490214    45.176643
O     56.297875    39.036557    44.317308
O     56.825443    39.945013    46.265585
C     49.276000    33.777000    42.633000
H     50.081479    33.080914    42.895792
H     49.357071    33.983444    41.558222
C     49.346130    35.060581    43.457858
H     48.474394    35.704108    43.220916
H     49.242453    34.820670    44.533876
C     50.642855    35.843042    43.204944
H     50.740965    36.071682    42.122623
H     50.571167    36.835351    43.702008
C     51.872033    35.068289    43.693384
H     51.585003    34.287364    44.432219
H     52.374113    34.530397    42.855411
N     52.873929    35.995670    44.340718
H     52.409581    36.613947    45.031791
H     53.585008    35.461001    44.862219
H     53.367917    36.599839    43.628862
C     50.957000    37.559000    39.635000
H     51.483812    36.982918    40.418242
O     51.889687    37.941679    38.635883
H     52.767474    38.156764    39.039594
C     49.888199    36.726438    38.941282
H     49.435188    37.264403    38.100647
H     50.295986    35.789750    38.545159
H     49.081896    36.457810    39.632450
Mg    55.661800    38.740335    41.875128
O     57.596132    37.847048    42.412544
H     57.664087    37.042197    41.853973
H     58.281923    38.428721    42.018223
H     52.247000    40.514000    36.057000
H     59.245000    39.699000    45.553000
H     48.336000    33.234000    42.783000
H     50.547000    38.485000    40.081000
78
frame=70 E_kcal=-1507.2329
C     52.249835    36.625508    48.191398
C     53.722540    36.674640    47.746876
C     54.114868    37.923220    46.935560
C     52.924104    38.869448    46.693527
C     53.189523    39.870049    45.547535
C     51.238830    37.245875    47.205383
O     50.755491    36.169525    46.443509
O     52.104079    37.283374    49.428704
O     53.996459    35.588858    46.883982
O     55.026508    38.624395    47.753082
O     51.807559    38.122331    46.250062
O     53.741725    39.105058    44.489476
H     51.948107    35.571080    48.421716
H     54.383017    36.580815    48.647096
H     54.617274    37.613339    45.986064
H     52.658186    39.415102    47.627743
H     52.241817    40.383348    45.284554
H     53.939241    40.625349    45.868617
H     50.402330    37.785464    47.698457
H     50.031638    36.456792    45.831317
H     52.564547    38.158721    49.425102
H     53.826703    34.722531    47.325341
H     55.659328    39.158501    47.191410
H     55.243167    39.106657    44.581469
P     53.389289    39.272080    42.846440
O     51.965599    39.609335    42.685175
O     54.462839    40.280118    42.407967
O     53.876893    37.852751    42.488733
P     55.693085    38.534691    39.086597
O     56.742971    38.829309    40.178781
O     56.249913    37.731541    37.963375
O     54.362324    38.174123    39.726317
P     55.169250    41.329887    37.775592
O     54.925289    42.509827    38.691567
O     56.327877    41.469086    36.822414
O     55.002237    39.969032    38.611351
O     53.743148    41.384833    36.952017
C     53.341000    40.484000    35.919000
H     53.629612    40.888786    34.941717
H     53.674181    39.443201    36.006268
C     58.586000    39.405000    44.728000
H     58.787948    40.059841    43.861304
H     58.849338    38.376897    44.419136
C     57.169247    39.488633    45.177240
O     56.289803    39.032748    44.324457
O     56.830505    39.936947    46.271468
C     49.276000    33.777000    42.633000
H     50.081464    33.081057    42.896144
H     49.357350    33.983163    41.558212
C     49.345831    35.060772    43.457515
H     48.474437    35.704577    43.219892
H     49.242034    34.821163    44.533579
C     50.642573    35.843263    43.205420
H     50.742030    36.071704    42.123175
H     50.569979    36.835996    43.701697
C     51.871728    35.069378    43.695526
H     51.585358    34.289239    44.435490
H     52.374858    34.531679    42.857920
N     52.873223    35.998961    44.340284
H     52.409960    36.616972    45.031951
H     53.586855    35.466514    44.859778
H     53.363755    36.603150    43.625526
C     50.957000    37.559000    39.635000
H     51.481529    36.981755    40.419260
O     51.894466    37.942284    38.640386
H     52.768208    38.160541    39.049656
C     49.888633    36.727439    38.939769
H     49.434883    37.266098    38.100050
H     50.295902    35.790531    38.543783
H     49.082789    36.458843    39.631807
Mg    55.633070    38.722441    41.838170
O     57.564145    37.850333    42.406706
H     57.647438    37.041912    41.856013
H     58.251895    38.433750    42.018581
H     52.247000    40.514000    36.057000
H     59.245000    39.699000    45.553000
H     48.336000    33.234000    42.783000
H     50.547000    38.485000    40.081000
78
frame=71 E_kcal=-1507.1535
C     52.248864    36.623679    48.194114
C     53.720856    36.674195    47.748060
C     54.110482    37.925236    46.938670
C     52.917909    38.869973    46.695890
C     53.180796    39.863788    45.543343
C     51.235178    37.243838    47.211089
O     50.751861    36.168556    46.447302
O     52.105491    37.280649    49.432267
O     53.993796    35.590840    46.882133
O     55.020201    38.626320    47.758332
O     51.800666    38.122519    46.256575
O     53.727097    39.089185    44.489245
H     51.947252    35.569093    48.423002
H     54.382704    36.576820    48.647342
H     54.616468    37.617028    45.990690
H     52.655081    39.418781    47.629325
H     52.236921    40.385165    45.284159
H     53.938890    40.611388    45.859510
H     50.398251    37.779993    47.707869
H     50.030274    36.458445    45.833592
H     52.566053    38.155900    49.428365
H     53.829982    34.722653    47.322881
H     55.658610    39.155696    47.198220
H     55.263218    39.102454    44.586879
P     53.381107    39.264721    42.850262
O     51.962682    39.622228    42.682134
O     54.464733    40.263278    42.413376
O     53.846286    37.840968    42.478352
P     55.694071    38.536924    39.064732
O     56.750015    38.830046    40.150784
O     56.237599    37.732367    37.936448
O     54.376050    38.156988    39.724579
P     55.169938    41.332895    37.772037
O     54.925704    42.507634    38.692366
O     56.328356    41.472538    36.819032
O     55.001825    39.972757    38.607717
O     53.743898    41.385810    36.951384
C     53.341000    40.484000    35.919000
H     53.629086    40.889134    34.941396
H     53.675286    39.443378    36.006011
C     58.586000    39.405000    44.728000
H     58.783301    40.061442    43.861907
H     58.849666    38.376268    44.419246
C     57.173986    39.481551    45.183048
O     56.296944    39.027722    44.323007
O     56.831313    39.926234    46.277114
C     49.276000    33.777000    42.633000
H     50.081524    33.081322    42.896578
H     49.357747    33.982818    41.558178
C     49.345197    35.061028    43.457148
H     48.473992    35.704898    43.218602
H     49.240904    34.821625    44.533183
C     50.641997    35.843503    43.206037
H     50.743102    36.071233    42.123837
H     50.568460    36.836413    43.701737
C     51.871155    35.071049    43.698158
H     51.585293    34.292354    44.439856
H     52.374165    34.531428    42.861961
N     52.871957    36.002953    44.340117
H     52.408686    36.620711    45.032400
H     53.587851    35.471773    44.857388
H     53.360956    36.609845    43.623234
C     50.957000    37.559000    39.635000
H     51.476253    36.979952    40.421886
O     51.901752    37.942609    38.647917
H     52.772806    38.165205    39.064057
C     49.889512    36.729211    38.936759
H     49.435406    37.268851    38.098245
H     50.296280    35.792289    38.540780
H     49.083966    36.459935    39.629011
Mg    55.594713    38.698451    41.789033
O     57.521186    37.850494    42.399671
H     57.624125    37.039843    41.856960
H     58.206730    38.441483    42.018904
H     52.247000    40.514000    36.057000
H     59.245000    39.699000    45.553000
H     48.336000    33.234000    42.783000
H     50.547000    38.485000    40.081000
78
frame=72 E_kcal=-1507.9837
C     52.247129    36.620180    48.198534
C     53.717906    36.672375    47.749903
C     54.103963    37.925974    46.943348
C     52.911083    38.868830    46.696323
C     53.173302    39.856533    45.537701
C     51.230824    37.240522    47.218646
O     50.747064    36.166080    46.453685
O     52.106697    37.276636    49.437523
O     53.993443    35.592780    46.879908
O     55.009886    38.628749    47.766304
O     51.790907    38.122200    46.263948
O     53.711824    39.074107    44.485885
H     51.946239    35.565307    48.426231
H     54.381141    36.573761    48.648125
H     54.614156    37.619872    45.997115
H     52.650620    39.423672    47.627014
H     52.231070    40.384076    45.285450
H     53.937435    40.601055    45.847256
H     50.394186    37.774288    47.718598
H     50.029576    36.459532    45.836727
H     52.567593    38.151925    49.433048
H     53.832605    34.722856    47.317525
H     55.654452    39.150000    47.207827
H     55.285085    39.090944    44.579516
P     53.366611    39.258554    42.853415
O     51.954844    39.643081    42.682866
O     54.465812    40.239398    42.412234
O     53.805379    37.829888    42.467461
P     55.697244    38.535064    39.039858
O     56.756531    38.833758    40.120201
O     56.223896    37.735578    37.900351
O     54.393236    38.131799    39.721743
P     55.170946    41.337907    37.765726
O     54.927971    42.505307    38.695460
O     56.328546    41.477276    36.813752
O     55.001157    39.976983    38.603210
O     53.742726    41.388829    36.950301
C     53.341000    40.484000    35.919000
H     53.628790    40.887983    34.940824
H     53.675661    39.443548    36.006805
C     58.586000    39.405000    44.728000
H     58.780341    40.065187    43.862995
H     58.859514    38.380701    44.415863
C     57.178292    39.480065    45.191837
O     56.308169    39.025565    44.323741
O     56.833549    39.917434    46.287736
C     49.276000    33.777000    42.633000
H     50.081698    33.081747    42.897253
H     49.358159    33.982439    41.558165
C     49.344463    35.061217    43.456913
H     48.473205    35.704578    43.217305
H     49.238714    34.822104    44.532904
C     50.641183    35.844180    43.206701
H     50.743647    36.070888    42.124345
H     50.566136    36.837156    43.701852
C     51.870284    35.072887    43.701057
H     51.584165    34.297360    44.445522
H     52.372992    34.530271    42.866687
N     52.870687    36.006459    44.341081
H     52.407157    36.622476    45.034353
H     53.588020    35.477404    44.857740
H     53.355249    36.617339    43.622413
C     50.957000    37.559000    39.635000
H     51.469292    36.977790    40.425255
O     51.909546    37.942769    38.656709
H     52.775484    38.168698    39.082172
C     49.891001    36.731751    38.931776
H     49.438063    37.273134    38.094015
H     50.298141    35.795632    38.534391
H     49.084462    36.460926    39.622685
Mg    55.542097    38.668723    41.726047
O     57.467375    37.845961    42.388635
H     57.596793    37.034998    41.853778
H     58.149032    38.448894    42.020529
H     52.247000    40.514000    36.057000
H     59.245000    39.699000    45.553000
H     48.336000    33.234000    42.783000
H     50.547000    38.485000    40.081000
78
frame=73 E_kcal=-1508.6419
C     52.244747    36.615305    48.203398
C     53.714434    36.670662    47.751634
C     54.098213    37.926810    46.947549
C     52.904315    38.867730    46.697756
C     53.165993    39.849048    45.532789
C     51.226020    37.237125    47.226834
O     50.740268    36.163093    46.462794
O     52.107047    37.270333    49.443470
O     53.990940    35.594101    46.878446
O     54.999374    38.631931    47.773508
O     51.782687    38.119809    46.271083
O     53.695729    39.059952    44.480678
H     51.945871    35.560156    48.432586
H     54.379093    36.571588    48.648649
H     54.610389    37.622884    46.001224
H     52.644030    39.429172    47.625332
H     52.223747    40.378821    45.284000
H     53.935356    40.592306    45.834718
H     50.389930    37.768766    47.729965
H     50.028805    36.457848    45.839803
H     52.568433    38.145288    49.438363
H     53.833594    34.722186    47.312169
H     55.650555    39.148588    47.217626
H     55.291386    39.075808    44.563018
P     53.345208    39.254989    42.852696
O     51.941039    39.671391    42.687374
O     54.461210    40.212836    42.403484
O     53.750859    37.818923    42.457002
P     55.704120    38.534907    39.010431
O     56.765999    38.835635    40.085069
O     56.208192    37.742779    37.856087
O     54.411666    38.112742    39.714105
P     55.170303    41.340626    37.759964
O     54.930643    42.499332    38.699190
O     56.325864    41.481181    36.808145
O     55.003438    39.980343    38.598613
O     53.742233    41.389837    36.948353
C     53.341000    40.484000    35.919000
H     53.628375    40.885541    34.939593
H     53.675728    39.443599    36.009372
C     58.586000    39.405000    44.728000
H     58.774190    40.070405    43.866777
H     58.861917    38.383725    44.408576
C     57.177753    39.472319    45.198121
O     56.312563    39.023230    44.323273
O     56.836701    39.902810    46.297102
C     49.276000    33.777000    42.633000
H     50.081812    33.082194    42.897905
H     49.358640    33.982085    41.558162
C     49.343021    35.061514    43.456543
H     48.471907    35.704632    43.215775
H     49.236595    34.822684    44.532512
C     50.639818    35.844470    43.208017
H     50.744209    36.070791    42.125721
H     50.563431    36.838008    43.701674
C     51.867910    35.073814    43.706246
H     51.580687    34.300371    44.452378
H     52.371876    34.530233    42.873266
N     52.867279    36.009589    44.344239
H     52.404235    36.623514    45.039606
H     53.588700    35.482898    44.857208
H     53.345684    36.623782    43.621342
C     50.957000    37.559000    39.635000
H     51.462242    36.974686    40.427819
O     51.918263    37.945609    38.665814
H     52.784678    38.161823    39.096103
C     49.893911    36.735505    38.923696
H     49.443239    37.280098    38.086896
H     50.301991    35.800527    38.524474
H     49.084984    36.461999    39.611051
Mg    55.477377    38.631544    41.652554
O     57.399411    37.834869    42.369724
H     57.565868    37.027365    41.842052
H     58.079535    38.453345    42.025014
H     52.247000    40.514000    36.057000
H     59.245000    39.699000    45.553000
H     48.336000    33.234000    42.783000
H     50.547000    38.485000    40.081000
78
frame=74 E_kcal=-1509.6763
C     52.243121    36.611084    48.208623
C     53.711210    36.669329    47.753159
C     54.091728    37.927439    46.951507
C     52.896402    38.865010    46.697764
C     53.155886    39.840469    45.526595
C     51.221630    37.232681    47.235256
O     50.733063    36.158412    46.472959
O     52.107105    37.263968    49.450083
O     53.986461    35.595419    46.876750
O     54.988334    38.634639    47.780869
O     51.774637    38.114612    46.277106
O     53.680442    39.048079    44.474046
H     51.946293    35.555045    48.436322
H     54.378229    36.568456    48.648217
H     54.607469    37.627301    46.006349
H     52.638563    39.431456    47.623104
H     52.214311    40.374474    45.281726
H     53.929907    40.581078    45.823723
H     50.387401    37.764895    47.740452
H     50.027973    36.455460    45.843933
H     52.568566    38.138834    49.446418
H     53.831915    34.722813    47.309909
H     55.644024    39.146100    47.225565
H     55.296306    39.068235    44.552262
P     53.318670    39.253007    42.848795
O     51.924640    39.703193    42.698267
O     54.450508    40.183906    42.385967
O     53.686552    37.808500    42.440741
P     55.713214    38.537758    38.977845
O     56.776914    38.826512    40.050380
O     56.192480    37.750568    37.809922
O     54.428337    38.091201    39.692156
P     55.170059    41.347278    37.752577
O     54.930700    42.494776    38.703882
O     56.324237    41.485425    36.799626
O     55.009010    39.987196    38.592558
O     53.740002    41.392543    36.947094
C     53.341000    40.484000    35.919000
H     53.628425    40.882787    34.938838
H     53.675311    39.443937    36.011725
C     58.586000    39.405000    44.728000
H     58.767252    40.078836    43.870821
H     58.860668    38.386452    44.400667
C     57.177095    39.462297    45.196849
O     56.314216    39.018129    44.317515
O     56.835686    39.882687    46.300925
C     49.276000    33.777000    42.633000
H     50.082079    33.082887    42.898711
H     49.359280    33.981791    41.558219
C     49.340706    35.061727    43.456512
H     48.469970    35.704495    43.213999
H     49.232763    34.822892    44.532412
C     50.637584    35.844681    43.210398
H     50.746144    36.069617    42.128165
H     50.559986    36.839081    43.702399
C     51.863962    35.074058    43.712784
H     51.575499    34.301971    44.459620
H     52.369496    34.528723    42.881927
N     52.862267    36.011902    44.348441
H     52.400404    36.622691    45.047042
H     53.588912    35.487540    44.855295
H     53.332866    36.631301    43.621897
C     50.957000    37.559000    39.635000
H     51.455459    36.970388    40.429176
O     51.924653    37.945038    38.672618
H     52.792288    38.144548    39.107553
C     49.897242    36.740204    38.912940
H     49.452183    37.290012    38.076513
H     50.308088    35.807720    38.510438
H     49.084897    36.462953    39.594129
Mg    55.406383    38.596053    41.581743
O     57.318996    37.812969    42.343708
H     57.528156    37.016573    41.815842
H     57.995060    38.453293    42.034640
H     52.247000    40.514000    36.057000
H     59.245000    39.699000    45.553000
H     48.336000    33.234000    42.783000
H     50.547000    38.485000    40.081000
78
frame=75 E_kcal=-1510.3185
C     52.241329    36.607653    48.213647
C     53.708151    36.667779    47.754565
C     54.085518    37.927105    46.953361
C     52.889060    38.861184    46.694840
C     53.146545    39.832631    45.520622
C     51.217226    37.229153    47.242814
O     50.725376    36.153483    46.484281
O     52.106672    37.257446    49.456851
O     53.981796    35.594731    46.876175
O     54.974962    38.638346    47.787180
O     51.766642    38.108766    46.280274
O     53.667159    39.040321    44.465515
H     51.946473    35.550318    48.439308
H     54.378053    36.565531    48.647668
H     54.606613    37.629827    46.010669
H     52.631377    39.431495    47.617854
H     52.205286    40.369042    45.279881
H     53.923136    40.571743    45.814383
H     50.384533    37.761914    47.750245
H     50.026655    36.452407    45.849018
H     52.568345    38.132295    49.454592
H     53.828994    34.721342    47.308534
H     55.637354    39.141738    47.234131
H     55.303264    39.063972    44.538954
P     53.291659    39.251909    42.845582
O     51.905994    39.732107    42.713308
O     54.436335    40.160684    42.367341
O     53.626153    37.803394    42.422779
P     55.720280    38.533991    38.941938
O     56.774840    38.810099    40.025043
O     56.186562    37.761274    37.759772
O     54.439867    38.063576    39.656503
P     55.171065    41.353638    37.746410
O     54.930954    42.494774    38.703757
O     56.321649    41.496356    36.790482
O     55.019663    39.992638    38.588857
O     53.739044    41.395309    36.946050
C     53.341000    40.484000    35.919000
H     53.628720    40.880732    34.937810
H     53.675722    39.443974    36.014323
C     58.586000    39.405000    44.728000
H     58.765708    40.085609    43.875771
H     58.868981    38.391092    44.394306
C     57.177043    39.455294    45.198889
O     56.317548    39.017867    44.312094
O     56.832086    39.868037    46.302996
C     49.276000    33.777000    42.633000
H     50.082444    33.083786    42.899747
H     49.359848    33.981726    41.558294
C     49.337855    35.061713    43.456402
H     48.467299    35.704006    43.212016
H     49.227086    34.823010    44.532003
C     50.635149    35.844305    43.213076
H     50.747278    36.068459    42.131029
H     50.556082    36.838806    43.704021
C     51.859829    35.073754    43.719254
H     51.569984    34.304441    44.468413
H     52.365476    34.525010    42.890432
N     52.859122    36.012514    44.351662
H     52.396770    36.619458    45.054762
H     53.589592    35.491395    44.853992
H     53.316944    36.640332    43.622798
C     50.957000    37.559000    39.635000
H     51.448289    36.966711    40.430259
O     51.925800    37.943444    38.674878
H     52.796822    38.127404    39.109260
C     49.899730    36.745118    38.902200
H     49.462252    37.301020    38.065739
H     50.314164    35.816115    38.495074
H     49.082381    36.463476    39.574861
Mg    55.347835    38.565030    41.531210
O     57.237768    37.779488    42.320725
H     57.482752    37.005592    41.774235
H     57.903695    38.448233    42.051660
H     52.247000    40.514000    36.057000
H     59.245000    39.699000    45.553000
H     48.336000    33.234000    42.783000
H     50.547000    38.485000    40.081000
78
frame=76 E_kcal=-1510.2030
C     52.239134    36.603983    48.217205
C     53.704933    36.665420    47.754924
C     54.080398    37.926139    46.954109
C     52.882194    38.856975    46.691100
C     53.138763    39.825641    45.514833
C     51.212358    37.225201    47.248973
O     50.716478    36.147994    46.495491
O     52.106542    37.251066    49.461944
O     53.977843    35.592660    46.875709
O     54.963674    38.642070    47.790987
O     51.760193    38.101281    46.281494
O     53.658360    39.034591    44.456219
H     51.945311    35.546308    48.442801
H     54.376807    36.564047    48.646839
H     54.606288    37.629821    46.013614
H     52.622988    39.430889    47.611933
H     52.196680    40.363180    45.277495
H     53.916601    40.564501    45.806145
H     50.382419    37.760462    47.758661
H     50.023714    36.448136    45.854363
H     52.568104    38.125787    49.461711
H     53.825516    34.718818    47.308038
H     55.632848    39.139699    47.241497
H     55.308240    39.061307    44.522158
P     53.268332    39.252837    42.842012
O     51.886016    39.755980    42.727177
O     54.420435    40.147062    42.351076
O     53.575956    37.802416    42.409474
P     55.722497    38.526426    38.907081
O     56.761603    38.789679    40.006627
O     56.199005    37.778721    37.712134
O     54.446151    38.029709    39.612613
P     55.173613    41.358492    37.740105
O     54.931701    42.494186    38.703317
O     56.319791    41.510778    36.781785
O     55.032466    39.998364    38.586960
O     53.739390    41.395193    36.945598
C     53.341000    40.484000    35.919000
H     53.628382    40.878782    34.936907
H     53.676543    39.444176    36.016117
C     58.586000    39.405000    44.728000
H     58.764586    40.091167    43.879789
H     58.877925    38.395258    44.391738
C     57.177489    39.452201    45.200216
O     56.322745    39.021157    44.303112
O     56.831255    39.856034    46.304783
C     49.276000    33.777000    42.633000
H     50.082760    33.084622    42.900701
H     49.360517    33.981509    41.558342
C     49.334847    35.061779    43.456447
H     48.464724    35.703743    43.209244
H     49.220903    34.823271    44.531816
C     50.632729    35.843705    43.216181
H     50.747265    36.067914    42.134295
H     50.552698    36.838273    43.707027
C     51.855593    35.072279    43.725734
H     51.564355    34.306711    44.478623
H     52.360450    34.519568    42.898759
N     52.854817    36.014040    44.353995
H     52.393660    36.615633    45.061853
H     53.591468    35.494547    44.850226
H     53.300821    36.649046    43.622832
C     50.957000    37.559000    39.635000
H     51.445260    36.964388    40.429517
O     51.920638    37.945811    38.670889
H     52.799129    38.115673    39.097053
C     49.900958    36.749891    38.893066
H     49.470465    37.312233    38.056707
H     50.318090    35.823806    38.481615
H     49.078721    36.464323    39.557197
Mg    55.294791    38.541163    41.499074
O     57.161884    37.735707    42.304701
H     57.433477    36.998455    41.719663
H     57.815870    38.433947    42.081430
H     52.247000    40.514000    36.057000
H     59.245000    39.699000    45.553000
H     48.336000    33.234000    42.783000
H     50.547000    38.485000    40.081000
78
frame=77 E_kcal=-1510.3374
C     52.237210    36.600316    48.220042
C     53.701872    36.663472    47.755454
C     54.076162    37.924685    46.954587
C     52.876288    38.851961    46.686992
C     53.132321    39.819587    45.510074
C     51.208876    37.221473    47.253707
O     50.706637    36.143141    46.505483
O     52.106202    37.245730    49.465612
O     53.975149    35.592063    46.875185
O     54.955473    38.643147    47.793122
O     51.756211    38.091958    46.280562
O     53.655232    39.032222    44.449374
H     51.944152    35.542206    48.445056
H     54.375018    36.562804    48.645902
H     54.604856    37.629573    46.016230
H     52.616323    39.428415    47.605826
H     52.189664    40.357125    45.273906
H     53.910519    40.558055    45.799936
H     50.382295    37.760384    47.764123
H     50.019000    36.443346    45.860120
H     52.568355    38.120153    49.466550
H     53.821654    34.718066    47.307463
H     55.627360    39.138272    47.244230
H     55.310322    39.063914    44.506136
P     53.248455    39.256144    42.839570
O     51.868635    39.773206    42.737874
O     54.402765    40.138638    42.336386
O     53.534038    37.803450    42.399727
P     55.727108    38.521558    38.879904
O     56.747727    38.766452    40.001984
O     56.219175    37.802704    37.675368
O     54.449598    37.996822    39.566026
P     55.175176    41.362474    37.734489
O     54.932541    42.489770    38.706842
O     56.318707    41.522498    36.775138
O     55.046907    40.003382    38.585433
O     53.738808    41.394941    36.945744
C     53.341000    40.484000    35.919000
H     53.627731    40.877917    34.936564
H     53.675884    39.444250    36.015692
C     58.586000    39.405000    44.728000
H     58.763041    40.094293    43.881513
H     58.880125    38.395826    44.391785
C     57.176826    39.447920    45.196593
O     56.324090    39.026505    44.292298
O     56.828202    39.842908    46.304783
C     49.276000    33.777000    42.633000
H     50.083047    33.085391    42.901682
H     49.361472    33.981323    41.558409
C     49.331597    35.061811    43.456460
H     48.462403    35.703722    43.206099
H     49.214483    34.823627    44.531542
C     50.629693    35.843218    43.219526
H     50.747692    36.067848    42.138197
H     50.549599    36.837650    43.710944
C     51.850225    35.071356    43.732245
H     51.559108    34.309485    44.488112
H     52.354859    34.513957    42.908440
N     52.849611    36.016121    44.355669
H     52.390658    36.612147    45.069763
H     53.593931    35.499098    44.841728
H     53.287852    36.652891    43.621426
C     50.957000    37.559000    39.635000
H     51.450348    36.962857    40.424122
O     51.910682    37.952642    38.662641
H     52.796641    38.108430    39.076331
C     49.900735    36.753752    38.887731
H     49.476391    37.321918    38.051627
H     50.319048    35.830235    38.471650
H     49.074982    36.466189    39.545470
Mg    55.243781    38.521806    41.459086
O     57.089520    37.686570    42.287343
H     57.385057    36.994840    41.660112
H     57.737530    38.409763    42.128836
H     52.247000    40.514000    36.057000
H     59.245000    39.699000    45.553000
H     48.336000    33.234000    42.783000
H     50.547000    38.485000    40.081000
78
frame=78 E_kcal=-1510.3083
C     52.235498    36.597085    48.221658
C     53.699756    36.661472    47.756127
C     54.072860    37.922235    46.954304
C     52.872151    38.846896    46.682973
C     53.129061    39.815158    45.505695
C     51.206027    37.218283    47.256343
O     50.697292    36.138445    46.514981
O     52.104956    37.241571    49.467692
O     53.972021    35.591062    46.874888
O     54.947659    38.643786    47.795255
O     51.754424    38.082760    46.277428
O     53.655079    39.035286    44.441407
H     51.943644    35.538257    48.446184
H     54.373719    36.560828    48.646025
H     54.604065    37.627884    46.015987
H     52.609259    39.424846    47.600898
H     52.185532    40.350196    45.270230
H     53.904617    40.554700    45.799267
H     50.382985    37.762745    47.767339
H     50.013042    36.439377    45.866252
H     52.568709    38.115112    49.469127
H     53.818301    34.716454    47.305285
H     55.620498    39.135227    47.245356
H     55.307873    39.070667    44.491122
P     53.231456    39.257632    42.835479
O     51.856594    39.784144    42.751153
O     54.388290    40.128839    42.317417
O     53.498115    37.801960    42.390517
P     55.733793    38.521230    38.859140
O     56.737769    38.745846    39.999125
O     56.245300    37.825353    37.647513
O     54.450450    37.972549    39.517651
P     55.177466    41.364292    37.733542
O     54.931995    42.483827    38.713558
O     56.317494    41.531266    36.770702
O     55.059085    40.007807    38.588078
O     53.739715    41.392983    36.947785
C     53.341000    40.484000    35.919000
H     53.627434    40.879163    34.936782
H     53.675025    39.443634    36.014379
C     58.586000    39.405000    44.728000
H     58.764504    40.093565    43.881819
H     58.880781    38.395646    44.393645
C     57.174242    39.445049    45.191731
O     56.323913    39.034866    44.279599
O     56.823628    39.832297    46.301662
C     49.276000    33.777000    42.633000
H     50.083285    33.086370    42.903012
H     49.362587    33.981152    41.558527
C     49.328270    35.062302    43.456103
H     48.459183    35.703574    43.202910
H     49.207456    34.823981    44.530772
C     50.627119    35.843337    43.223137
H     50.748057    36.068820    42.142097
H     50.545007    36.837771    43.714908
C     51.845676    35.069987    43.738969
H     51.552646    34.312658    44.498565
H     52.348665    34.508108    42.917214
N     52.847374    36.016347    44.355955
H     52.391773    36.609698    45.073561
H     53.597857    35.500919    44.835578
H     53.274279    36.658331    43.618303
C     50.957000    37.559000    39.635000
H     51.461159    36.962108    40.415478
O     51.898857    37.960758    38.653551
H     52.792907    38.106109    39.053590
C     49.898819    36.755904    38.886974
H     49.478224    37.328523    38.051689
H     50.316815    35.834218    38.467003
H     49.071595    36.468737    39.542064
Mg    55.188103    38.508945    41.418362
O     57.015727    37.634360    42.268778
H     57.344311    36.996365    41.602285
H     57.661678    38.371743    42.193068
H     52.247000    40.514000    36.057000
H     59.245000    39.699000    45.553000
H     48.336000    33.234000    42.783000
H     50.547000    38.485000    40.081000
78
frame=79 E_kcal=-1510.8786
C     52.233938    36.594410    48.222163
C     53.697812    36.657943    47.754853
C     54.069814    37.919150    46.952688
C     52.868550    38.841366    46.677795
C     53.126038    39.811847    45.501871
C     51.204045    37.216128    47.257309
O     50.688773    36.135172    46.522580
O     52.103325    37.238555    49.468507
O     53.968607    35.587159    46.873595
O     54.940957    38.643777    47.794786
O     51.753336    38.073924    46.272546
O     53.657669    39.037264    44.436269
H     51.942574    35.535329    48.446601
H     54.372171    36.558180    48.644950
H     54.603375    37.626178    46.016192
H     52.602917    39.419527    47.594276
H     52.180857    40.346597    45.267602
H     53.899450    40.552435    45.800657
H     50.385332    37.766571    47.768429
H     50.006007    36.435888    45.872021
H     52.568875    38.111225    49.470722
H     53.815482    34.712512    47.304028
H     55.617210    39.133570    47.246689
H     55.310133    39.076664    44.474220
P     53.217861    39.257082    42.833637
O     51.844410    39.794403    42.764431
O     54.370130    40.119485    42.298531
O     53.463590    37.800650    42.384384
P     55.742392    38.519994    38.836803
O     56.726669    38.734272    39.997268
O     56.275328    37.841405    37.626364
O     54.453387    37.952231    39.472672
P     55.178285    41.363797    37.733805
O     54.933220    42.481236    38.716468
O     56.316628    41.539828    36.770736
O     55.057786    40.010834    38.597823
O     53.741549    41.390102    36.948767
C     53.341000    40.484000    35.919000
H     53.627706    40.881687    34.938126
H     53.674537    39.443577    36.012421
C     58.586000    39.405000    44.728000
H     58.769184    40.091813    43.880752
H     58.884277    38.395073    44.397696
C     57.173148    39.447504    45.186808
O     56.327099    39.049011    44.264852
O     56.818760    39.824675    46.297365
C     49.276000    33.777000    42.633000
H     50.083674    33.087449    42.904760
H     49.363734    33.980580    41.558515
C     49.324917    35.062488    43.455717
H     48.456631    35.703248    43.199333
H     49.200387    34.824869    44.530070
C     50.624156    35.843629    43.226757
H     50.748619    36.070563    42.146579
H     50.541019    36.837400    43.719306
C     51.841139    35.069404    43.744991
H     51.546559    34.317734    44.509272
H     52.340810    34.501303    42.925463
N     52.845678    36.016696    44.355500
H     52.395307    36.608023    45.077935
H     53.601589    35.502691    44.826917
H     53.265016    36.660782    43.614895
C     50.957000    37.559000    39.635000
H     51.470879    36.962428    40.408877
O     51.889664    37.965745    38.644483
H     52.786783    38.114101    39.032581
C     49.895549    36.756473    38.890652
H     49.474257    37.330860    38.056589
H     50.310950    35.834563    38.468893
H     49.069022    36.470726    39.547086
Mg    55.144716    38.491788    41.375061
O     56.940341    37.577079    42.253521
H     57.309483    37.001819    41.549836
H     57.577288    38.325296    42.268946
H     52.247000    40.514000    36.057000
H     59.245000    39.699000    45.553000
H     48.336000    33.234000    42.783000
H     50.547000    38.485000    40.081000
78
frame=80 E_kcal=-1512.8259
C     52.232160    36.592260    48.220752
C     53.695639    36.655432    47.752099
C     54.068345    37.916312    46.950112
C     52.865955    38.836045    46.672616
C     53.123254    39.808159    45.499859
C     51.201803    37.213990    47.256481
O     50.680538    36.132201    46.528009
O     52.102974    37.235871    49.467341
O     53.964946    35.583444    46.871822
O     54.936954    38.642195    47.794040
O     51.753586    38.064958    46.266204
O     53.659639    39.039854    44.429215
H     51.940064    35.533482    48.446338
H     54.371122    36.554340    48.641522
H     54.604617    37.622713    46.015090
H     52.597258    39.414358    47.589005
H     52.178868    40.344156    45.265482
H     53.895712    40.549537    45.799625
H     50.387953    37.770979    47.768191
H     49.998185    36.433202    45.877155
H     52.569029    38.108202    49.471086
H     53.812957    34.709645    47.304060
H     55.612679    39.131249    47.247026
H     55.316256    39.084124    44.454312
P     53.202258    39.254741    42.834579
O     51.832054    39.805558    42.777926
O     54.355404    40.106941    42.276030
O     53.435052    37.799818    42.378027
P     55.746286    38.518347    38.821500
O     56.714142    38.731704    39.995328
O     56.301514    37.856904    37.611963
O     54.454116    37.928716    39.432545
P     55.174718    41.368842    37.735081
O     54.931563    42.484529    38.719423
O     56.315563    41.540024    36.776191
O     55.068075    40.010099    38.589859
O     53.737810    41.391605    36.951878
C     53.341000    40.484000    35.919000
H     53.627808    40.883742    34.938752
H     53.674674    39.443565    36.009537
C     58.586000    39.405000    44.728000
H     58.774821    40.089009    43.879820
H     58.886931    38.394178    44.403765
C     57.173285    39.450032    45.181965
O     56.329778    39.065629    44.248695
O     56.814251    39.820373    46.292947
C     49.276000    33.777000    42.633000
H     50.083752    33.088419    42.906454
H     49.364915    33.979691    41.558594
C     49.321806    35.063242    43.455115
H     48.454215    35.703487    43.195254
H     49.193745    34.826014    44.529286
C     50.621433    35.845191    43.230363
H     50.748765    36.072873    42.150507
H     50.537659    36.837439    43.724958
C     51.836730    35.069270    43.751056
H     51.541061    34.322973    44.520940
H     52.332214    34.494631    42.934205
N     52.845774    36.016587    44.353827
H     52.398921    36.605710    45.080940
H     53.605796    35.501916    44.818565
H     53.258205    36.661079    43.609986
C     50.957000    37.559000    39.635000
H     51.477009    36.964388    40.405925
O     51.879903    37.969128    38.636763
H     52.778731    38.124097    39.016833
C     49.890937    36.755055    38.898332
H     49.465597    37.328361    38.065204
H     50.302665    35.831783    38.476162
H     49.067819    36.472023    39.559542
Mg    55.104345    38.473099    41.347421
O     56.864233    37.517126    42.239697
H     57.280714    37.009292    41.508878
H     57.482636    38.274046    42.351543
H     52.247000    40.514000    36.057000
H     59.245000    39.699000    45.553000
H     48.336000    33.234000    42.783000
H     50.547000    38.485000    40.081000
78
frame=81 E_kcal=-1513.0667
C     52.230509    36.590036    48.219424
C     53.693885    36.652171    47.749270
C     54.067434    37.912436    46.946749
C     52.865376    38.831679    46.666490
C     53.122922    39.805884    45.495335
C     51.200483    37.212475    47.254683
O     50.672383    36.130415    46.531711
O     52.102595    37.234014    49.466049
O     53.960523    35.579812    46.868449
O     54.933805    38.638924    47.792446
O     51.755059    38.057083    46.259898
O     53.663491    39.041268    44.423797
H     51.937469    35.531966    48.444440
H     54.370328    36.550735    48.637970
H     54.606326    37.619419    46.012816
H     52.593484    39.407968    47.583286
H     52.176789    40.342405    45.264767
H     53.895652    40.546117    45.797158
H     50.389878    37.775162    47.765682
H     49.989374    36.431113    45.881229
H     52.569948    38.105593    49.468609
H     53.810983    34.707297    47.303707
H     55.608546    39.129858    47.246037
H     55.317991    39.094273    44.436139
P     53.186528    39.254967    42.830343
O     51.825133    39.817084    42.787575
O     54.337093    40.098176    42.254574
O     53.402017    37.795310    42.372776
P     55.749713    38.519534    38.809223
O     56.694334    38.733347    40.001355
O     56.324227    37.866432    37.600993
O     54.454349    37.915186    39.400345
P     55.173677    41.371912    37.731725
O     54.925195    42.480737    38.721298
O     56.317253    41.543125    36.774982
O     55.068700    40.011593    38.584726
O     53.733913    41.389411    36.954230
C     53.341000    40.484000    35.919000
H     53.628092    40.885552    34.939632
H     53.677180    39.444277    36.009149
C     58.586000    39.405000    44.728000
H     58.779808    40.085315    43.877599
H     58.886800    38.391844    44.409080
C     57.172330    39.454244    45.176055
O     56.333298    39.082241    44.233004
O     56.807440    39.815838    46.287153
C     49.276000    33.777000    42.633000
H     50.083786    33.089190    42.908320
H     49.366168    33.978833    41.558502
C     49.318960    35.063991    43.454033
H     48.452161    35.704009    43.191011
H     49.187377    34.827594    44.527780
C     50.619087    35.846306    43.234458
H     50.748969    36.075937    42.155546
H     50.534109    36.837474    43.730811
C     51.832259    35.067431    43.756629
H     51.534838    34.328388    44.532360
H     52.323802    34.486700    42.941888
N     52.846194    36.013373    44.352441
H     52.404848    36.603978    45.081853
H     53.609319    35.499362    44.811817
H     53.252462    36.658212    43.606083
C     50.957000    37.559000    39.635000
H     51.483234    36.967253    40.403882
O     51.871119    37.972951    38.630775
H     52.774240    38.126437    39.003861
C     49.886065    36.751839    38.908911
H     49.454147    37.321615    38.076813
H     50.293770    35.826704    38.487462
H     49.067880    36.472522    39.577705
Mg    55.071454    38.449493    41.321960
O     56.788361    37.460015    42.226995
H     57.258572    37.020378    41.483537
H     57.381208    38.214068    42.437530
H     52.247000    40.514000    36.057000
H     59.245000    39.699000    45.553000
H     48.336000    33.234000    42.783000
H     50.547000    38.485000    40.081000
78
frame=82 E_kcal=-1513.5784
C     52.228719    36.588268    48.216006
C     53.692106    36.648676    47.745993
C     54.067251    37.908046    46.943309
C     52.865719    38.826312    46.659376
C     53.124937    39.802058    45.490320
C     51.199164    37.211873    47.251630
O     50.665708    36.129565    46.533760
O     52.102435    37.233053    49.462193
O     53.956463    35.575729    46.865408
O     54.931624    38.635264    47.790599
O     51.756105    38.050525    46.252424
O     53.663047    39.044694    44.413593
H     51.935358    35.530285    48.441825
H     54.368585    36.547180    48.633978
H     54.607391    37.615955    46.010306
H     52.592697    39.403097    47.576454
H     52.180068    40.339132    45.262049
H     53.897535    40.541898    45.793514
H     50.392032    37.779886    47.761790
H     49.981507    36.430492    45.885146
H     52.571377    38.103632    49.464855
H     53.809705    34.702410    47.300809
H     55.603958    39.128979    47.245840
H     55.315269    39.108137    44.417717
P     53.173737    39.254950    42.825122
O     51.813390    39.827927    42.796025
O     54.324950    40.082791    42.234373
O     53.369282    37.793983    42.367559
P     55.750697    38.520533    38.804484
O     56.679809    38.732395    40.008843
O     56.341896    37.880548    37.600035
O     54.448273    37.905408    39.373040
P     55.173846    41.370964    37.730132
O     54.921138    42.476762    38.721724
O     56.312794    41.552610    36.771023
O     55.067657    40.010630    38.581238
O     53.734873    41.388447    36.952466
C     53.341000    40.484000    35.919000
H     53.627719    40.886304    34.939794
H     53.678637    39.444854    36.009022
C     58.586000    39.405000    44.728000
H     58.785236    40.080660    43.875095
H     58.884796    38.389644    44.413752
C     57.170190    39.458868    45.170247
O     56.332692    39.098982    44.219646
O     56.801422    39.814249    46.280119
C     49.276000    33.777000    42.633000
H     50.083745    33.090082    42.910316
H     49.367618    33.977837    41.558594
C     49.316069    35.064571    43.453322
H     48.450354    35.704654    43.186219
H     49.180199    34.828944    44.527045
C     50.617123    35.846516    43.238263
H     50.750655    36.079938    42.160402
H     50.531708    36.836146    43.737334
C     51.827693    35.065138    43.762730
H     51.527398    34.331610    44.542657
H     52.314190    34.477540    42.949981
N     52.846803    36.009835    44.351268
H     52.410442    36.601868    45.082676
H     53.611230    35.494133    44.806367
H     53.248597    36.654227    43.601072
C     50.957000    37.559000    39.635000
H     51.491310    36.970747    40.401326
O     51.862633    37.973425    38.624025
H     52.770783    38.120108    38.991289
C     49.881774    36.747344    38.921299
H     49.441149    37.312015    38.090238
H     50.285751    35.819589    38.501953
H     49.069428    36.471527    39.599419
Mg    55.026450    38.433512    41.296050
O     56.717787    37.399612    42.217328
H     57.243888    37.034210    41.471267
H     57.272467    38.146596    42.531334
H     52.247000    40.514000    36.057000
H     59.245000    39.699000    45.553000
H     48.336000    33.234000    42.783000
H     50.547000    38.485000    40.081000
78
frame=83 E_kcal=-1514.4834
C     52.227463    36.586951    48.211875
C     53.691322    36.644291    47.741216
C     54.068165    37.903422    46.938519
C     52.867137    38.822258    46.652067
C     53.126954    39.798739    45.483972
C     51.198486    37.211761    47.247502
O     50.659766    36.129529    46.533723
O     52.101743    37.232863    49.457867
O     53.954725    35.570977    46.860542
O     54.930060    38.631238    47.787988
O     51.758487    38.045051    46.245362
O     53.664273    39.043994    44.404174
H     51.932413    35.529523    48.438375
H     54.366476    36.542114    48.630475
H     54.610215    37.610824    46.006791
H     52.593062    39.400072    47.568470
H     52.182016    40.340484    45.258511
H     53.902563    40.535796    45.789317
H     50.394988    37.785247    47.757267
H     49.973975    36.430392    45.886595
H     52.573265    38.102198    49.459796
H     53.808369    34.697577    47.296804
H     55.599870    39.128291    47.244249
H     55.312175    39.125073    44.399791
P     53.158220    39.254143    42.819871
O     51.801808    39.839871    42.802207
O     54.310630    40.072852    42.222588
O     53.334933    37.791187    42.360451
P     55.752298    38.522479    38.802127
O     56.664373    38.726066    40.023034
O     56.357306    37.890474    37.602160
O     54.444651    37.893626    39.348415
P     55.172115    41.376886    37.729463
O     54.921007    42.478105    38.727097
O     56.308350    41.560927    36.768458
O     55.069269    40.012229    38.576465
O     53.732391    41.392887    36.951304
C     53.341000    40.484000    35.919000
H     53.626041    40.884757    34.938299
H     53.677301    39.444305    36.007968
C     58.586000    39.405000    44.728000
H     58.790847    40.076241    43.872865
H     58.882719    38.387619    44.418893
C     57.169620    39.465423    45.165824
O     56.333489    39.119136    44.207127
O     56.794965    39.815136    46.275502
C     49.276000    33.777000    42.633000
H     50.083764    33.090898    42.912431
H     49.369214    33.976936    41.558547
C     49.313128    35.065492    43.451969
H     48.448694    35.705389    43.181109
H     49.172527    34.830564    44.525080
C     50.614986    35.846876    43.242549
H     50.752787    36.083112    42.166010
H     50.530021    36.835137    43.745287
C     51.822265    35.061740    43.768232
H     51.520254    34.333882    44.552938
H     52.304668    34.466906    42.958153
N     52.846801    36.004983    44.349543
H     52.414915    36.598595    45.082055
H     53.612674    35.488383    44.801071
H     53.244548    36.647468    43.596885
C     50.957000    37.559000    39.635000
H     51.499771    36.975180    40.398902
O     51.852434    37.971235    38.614219
H     52.763800    38.108754    38.971856
C     49.877289    36.741057    38.935721
H     49.427915    37.299583    38.105313
H     50.278930    35.811240    38.518682
H     49.071154    36.467886    39.623307
Mg    54.987280    38.414757    41.270601
O     56.648513    37.335599    42.209212
H     57.236619    37.056518    41.471724
H     57.149617    38.066400    42.631818
H     52.247000    40.514000    36.057000
H     59.245000    39.699000    45.553000
H     48.336000    33.234000    42.783000
H     50.547000    38.485000    40.081000
78
frame=84 E_kcal=-1515.1878
C     52.226318    36.585519    48.206571
C     53.689961    36.640807    47.736312
C     54.068887    37.899230    46.933289
C     52.868519    38.818369    46.645046
C     53.129950    39.795476    45.479377
C     51.198440    37.212172    47.242014
O     50.654757    36.130283    46.532232
O     52.103047    37.232015    49.452357
O     53.953158    35.567106    46.856138
O     54.929884    38.627200    47.783721
O     51.760721    38.040891    46.236918
O     53.664361    39.042163    44.396301
H     51.929036    35.528880    48.434393
H     54.365170    36.536421    48.625288
H     54.613606    37.606130    46.003446
H     52.594455    39.396890    47.560269
H     52.187811    40.342273    45.256089
H     53.909036    40.528941    45.782686
H     50.398537    37.790105    47.752142
H     49.967790    36.431485    45.886229
H     52.574932    38.101221    49.453678
H     53.806678    34.694282    47.292084
H     55.597266    39.126902    47.241177
H     55.314101    39.143925    44.382378
P     53.141487    39.253945    42.817250
O     51.792655    39.849724    42.808684
O     54.299124    40.061546    42.210241
O     53.302091    37.788661    42.351337
P     55.748723    38.524732    38.797489
O     56.642690    38.720512    40.032554
O     56.376610    37.896402    37.603695
O     54.437720    37.886926    39.319449
P     55.170063    41.380185    37.728944
O     54.921390    42.476726    38.730647
O     56.306300    41.567832    36.767995
O     55.071102    40.016434    38.577665
O     53.730598    41.392749    36.951821
C     53.341000    40.484000    35.919000
H     53.625675    40.882869    34.937977
H     53.677707    39.444960    36.011267
C     58.586000    39.405000    44.728000
H     58.795544    40.072553    43.870706
H     58.880276    38.385214    44.424505
C     57.169115    39.472466    45.159971
O     56.334861    39.135948    44.190592
O     56.790466    39.817168    46.268858
C     49.276000    33.777000    42.633000
H     50.083615    33.091837    42.914616
H     49.370738    33.975670    41.558489
C     49.309761    35.066640    43.450754
H     48.446699    35.706732    43.175001
H     49.164213    34.832499    44.523491
C     50.613306    35.846213    43.246973
H     50.754299    36.086458    42.171763
H     50.528195    36.832964    43.752785
C     51.817179    35.056983    43.773609
H     51.513149    34.335377    44.563567
H     52.294674    34.455490    42.965416
N     52.847309    35.999246    44.347393
H     52.418639    36.594886    45.081294
H     53.614608    35.482329    44.796657
H     53.238911    36.640478    43.591788
C     50.957000    37.559000    39.635000
H     51.508798    36.981060    40.397477
O     51.842495    37.965996    38.603215
H     52.761548    38.099372    38.946939
C     49.872923    36.733262    38.951301
H     49.414345    37.284761    38.121564
H     50.273022    35.801846    38.536909
H     49.073532    36.462234    39.647876
Mg    54.953110    38.396850    41.257407
O     56.583317    37.276233    42.206085
H     57.230650    37.091400    41.487732
H     57.010089    37.974122    42.739226
H     52.247000    40.514000    36.057000
H     59.245000    39.699000    45.553000
H     48.336000    33.234000    42.783000
H     50.547000    38.485000    40.081000
78
frame=85 E_kcal=-1517.1656
C     52.226258    36.584131    48.201221
C     53.690027    36.637332    47.730655
C     54.070583    37.895892    46.928667
C     52.870899    38.815291    46.638279
C     53.136292    39.792733    45.472959
C     51.198532    37.212027    47.236956
O     50.650716    36.131195    46.529135
O     52.104422    37.231276    49.446826
O     53.951290    35.563439    46.850026
O     54.931120    38.624390    47.779607
O     51.763664    38.037248    46.229804
O     53.668833    39.042715    44.386549
H     51.926696    35.528592    48.429158
H     54.364906    36.532482    48.619827
H     54.615432    37.602668    45.998975
H     52.595300    39.392740    47.554323
H     52.195194    40.343723    45.254775
H     53.917677    40.523185    45.777123
H     50.401128    37.794662    47.746534
H     49.962873    36.433792    45.884408
H     52.576297    38.100502    49.446728
H     53.804615    34.691022    47.286945
H     55.597089    39.125085    47.236251
H     55.315014    39.158620    44.361829
P     53.130580    39.251615    42.814371
O     51.783539    39.858602    42.817438
O     54.289455    40.049040    42.197464
O     53.272612    37.785826    42.346788
P     55.744640    38.519423    38.793900
O     56.620591    38.717402    40.042044
O     56.393628    37.906283    37.605239
O     54.426778    37.880490    39.298710
P     55.169142    41.383876    37.727556
O     54.917383    42.475755    38.733934
O     56.305982    41.570641    36.768237
O     55.083318    40.020093    38.577116
O     53.728891    41.391839    36.953849
C     53.341000    40.484000    35.919000
H     53.628020    40.882433    34.938467
H     53.678899    39.445257    36.014462
C     58.586000    39.405000    44.728000
H     58.801597    40.068581    43.868724
H     58.878982    38.382651    44.429392
C     57.167262    39.472629    45.147249
O     56.337965    39.131296    44.171739
O     56.779446    39.817750    46.251964
C     49.276000    33.777000    42.633000
H     50.083607    33.092685    42.917017
H     49.372178    33.974255    41.558392
C     49.306481    35.067164    43.449512
H     48.445685    35.707642    43.168685
H     49.155063    34.834784    44.521867
C     50.611395    35.845058    43.250986
H     50.755662    36.089123    42.176879
H     50.526668    36.830285    43.760078
C     51.811978    35.052317    43.778814
H     51.506731    34.336219    44.573212
H     52.284462    34.444316    42.972858
N     52.846633    35.994038    44.344679
H     52.422865    36.590678    45.080690
H     53.615614    35.477021    44.791242
H     53.232306    36.634669    43.585549
C     50.957000    37.559000    39.635000
H     51.518089    36.988168    40.396111
O     51.829651    37.963118    38.590687
H     52.751234    38.090346    38.922958
C     49.869305    36.724767    38.966817
H     49.400710    37.268965    38.137788
H     50.268502    35.791667    38.555562
H     49.077677    36.456223    39.672519
Mg    54.922091    38.379084    41.238949
O     56.517121    37.235891    42.217653
H     57.217708    37.142181    41.531622
H     56.873685    37.886143    42.849822
H     52.247000    40.514000    36.057000
H     59.245000    39.699000    45.553000
H     48.336000    33.234000    42.783000
H     50.547000    38.485000    40.081000
78
frame=86 E_kcal=-1517.3195
C     52.226277    36.583416    48.195595
C     53.690389    36.634655    47.725522
C     54.072989    37.892167    46.923187
C     52.874233    38.812052    46.633014
C     53.142529    39.792117    45.470270
C     51.199926    37.213185    47.230910
O     50.647741    36.133259    46.525668
O     52.105539    37.230962    49.441142
O     53.949753    35.560862    46.844332
O     54.933027    38.620576    47.774816
O     51.767367    38.034777    46.222159
O     53.672497    39.045455    44.380293
H     51.926171    35.527507    48.423329
H     54.365490    36.528826    48.614262
H     54.617709    37.600004    45.993467
H     52.597058    39.389767    47.547891
H     52.202828    40.346218    45.252127
H     53.928318    40.518062    45.774732
H     50.404209    37.797685    47.740506
H     49.959652    36.436723    45.881960
H     52.577532    38.100157    49.440023
H     53.802748    34.687779    47.280565
H     55.596384    39.122430    47.230634
H     55.314963    39.157857    44.334121
P     53.120445    39.249852    42.810400
O     51.777746    39.866480    42.826697
O     54.278074    40.038591    42.182205
O     53.248038    37.782042    42.343757
P     55.741248    38.521324    38.789975
O     56.602716    38.710401    40.052031
O     56.400904    37.911793    37.606737
O     54.419090    37.873681    39.274835
P     55.169232    41.384244    37.725358
O     54.911003    42.471109    38.736553
O     56.305503    41.574310    36.767392
O     55.103114    40.027263    38.580448
O     53.726640    41.390503    36.957162
C     53.341000    40.484000    35.919000
H     53.630487    40.882819    34.939580
H     53.678206    39.445115    36.013154
C     58.586000    39.405000    44.728000
H     58.808741    40.064418    43.867158
H     58.882823    38.381972    44.431774
C     57.164100    39.465573    45.133130
O     56.341383    39.105034    44.158018
O     56.760174    39.821821    46.226375
C     49.276000    33.777000    42.633000
H     50.083308    33.093493    42.919217
H     49.373645    33.972920    41.558341
C     49.302690    35.068136    43.447894
H     48.443771    35.708883    43.162236
H     49.146096    34.836947    44.519777
C     50.609081    35.844591    43.254869
H     50.756945    36.090620    42.181549
H     50.525076    36.828426    43.767092
C     51.806754    35.047779    43.783751
H     51.500296    34.337024    44.582192
H     52.275185    34.433463    42.979852
N     52.845641    35.989304    44.342321
H     52.427037    36.587637    45.080191
H     53.617345    35.472089    44.783241
H     53.225874    36.629178    43.579628
C     50.957000    37.559000    39.635000
H     51.529655    36.995017    40.392666
O     51.815645    37.963468    38.579744
H     52.741533    38.083540    38.901322
C     49.865770    36.715550    38.983337
H     49.388510    37.252495    38.154409
H     50.265329    35.781701    38.574018
H     49.082005    36.449673    39.697799
Mg    54.893559    38.362780    41.228325
O     56.453721    37.214332    42.242720
H     57.201465    37.203800    41.605330
H     56.737884    37.818311    42.956276
H     52.247000    40.514000    36.057000
H     59.245000    39.699000    45.553000
H     48.336000    33.234000    42.783000
H     50.547000    38.485000    40.081000
78
frame=87 E_kcal=-1518.6552
C     52.227345    36.582802    48.189311
C     53.691445    36.631825    47.719345
C     54.074965    37.889140    46.917230
C     52.877711    38.810855    46.626439
C     53.149809    39.792073    45.465809
C     51.201818    37.213810    47.224842
O     50.646121    36.134585    46.521133
O     52.106534    37.230638    49.434653
O     53.949382    35.557987    46.837580
O     54.937195    38.614619    47.769318
O     51.771065    38.033405    46.215009
O     53.673474    39.046457    44.371858
H     51.926060    35.527429    48.417198
H     54.366105    36.524507    48.608552
H     54.620379    37.596594    45.988374
H     52.600398    39.387524    47.542492
H     52.212959    40.351160    45.251229
H     53.938906    40.512787    45.774626
H     50.408311    37.801859    47.734417
H     49.957527    36.440139    45.878312
H     52.578548    38.099722    49.433719
H     53.800862    34.685291    47.274221
H     55.594683    39.121485    47.223610
H     55.311096    39.140840    44.314689
P     53.106936    39.250258    42.808512
O     51.770594    39.872900    42.835221
O     54.266178    40.030954    42.169739
O     53.225111    37.780270    42.345719
P     55.737430    38.519378    38.785714
O     56.588148    38.694977    40.057653
O     56.407924    37.910439    37.607166
O     54.410837    37.867162    39.255049
P     55.171784    41.385322    37.721781
O     54.909903    42.467200    38.736567
O     56.304600    41.584080    36.761211
O     55.107623    40.039292    38.606896
O     53.730187    41.383762    36.957035
C     53.341000    40.484000    35.919000
H     53.630635    40.884710    34.939973
H     53.676314    39.443635    36.009576
C     58.586000    39.405000    44.728000
H     58.811701    40.063342    43.867093
H     58.891304    38.384050    44.431792
C     57.161877    39.462920    45.128709
O     56.341518    39.086381    44.157621
O     56.742544    39.837268    46.212215
C     49.276000    33.777000    42.633000
H     50.083268    33.094498    42.921671
H     49.375283    33.971598    41.558223
C     49.298944    35.069242    43.446218
H     48.441406    35.710043    43.155463
H     49.136909    34.839367    44.517658
C     50.606770    35.844193    43.258300
H     50.758111    36.092316    42.186338
H     50.523218    36.826367    43.772645
C     51.801742    35.044012    43.788599
H     51.493377    34.338828    44.591339
H     52.265453    34.423960    42.987109
N     52.845724    35.984827    44.339097
H     52.431540    36.583242    45.078739
H     53.620116    35.467205    44.774981
H     53.219074    36.625693    43.573366
C     50.957000    37.559000    39.635000
H     51.542526    37.001204    40.388265
O     51.808362    37.961615    38.570922
H     52.738075    38.087275    38.882270
C     49.864202    36.706878    39.000337
H     49.375942    37.235094    38.172088
H     50.262617    35.770979    38.593904
H     49.087350    36.442260    39.724057
Mg    54.863577    38.350599    41.207382
O     56.401287    37.181108    42.269867
H     57.191283    37.271190    41.696340
H     56.587328    37.763922    43.035876
H     52.247000    40.514000    36.057000
H     59.245000    39.699000    45.553000
H     48.336000    33.234000    42.783000
H     50.547000    38.485000    40.081000
78
frame=88 E_kcal=-1518.4563
C     52.228083    36.582063    48.182389
C     53.692566    36.628492    47.712946
C     54.079017    37.884917    46.911280
C     52.882359    38.808550    46.621650
C     53.156420    39.791606    45.464348
C     51.204046    37.215814    47.217949
O     50.645796    36.137623    46.515061
O     52.108528    37.229646    49.427957
O     53.949447    35.555005    46.830728
O     54.944967    38.610014    47.760319
O     51.775199    38.033236    46.207378
O     53.669142    39.043760    44.367172
H     51.925365    35.527241    48.410465
H     54.366829    36.519878    48.601337
H     54.622575    37.591520    45.981346
H     52.605314    39.385347    47.536948
H     52.224445    40.360692    45.252701
H     53.952587    40.506107    45.770427
H     50.413098    37.806507    47.727839
H     49.956430    36.443359    45.873388
H     52.579908    38.099215    49.426983
H     53.799302    34.682551    47.266780
H     55.594616    39.125201    47.215590
H     55.309762    39.127916    44.325903
P     53.093351    39.252822    42.805594
O     51.758725    39.880045    42.841579
O     54.251103    40.020941    42.153860
O     53.206515    37.782228    42.342777
P     55.727922    38.515991    38.787677
O     56.574098    38.675333    40.064769
O     56.408106    37.917487    37.607123
O     54.398989    37.856855    39.241811
P     55.170073    41.387153    37.727652
O     54.912134    42.472562    38.740538
O     56.298394    41.584085    36.761819
O     55.146678    40.048073    38.616248
O     53.727085    41.382301    36.964328
C     53.341000    40.484000    35.919000
H     53.627667    40.887305    34.940666
H     53.673805    39.442964    36.003778
C     58.586000    39.405000    44.728000
H     58.805472    40.067545    43.868491
H     58.893065    38.386802    44.429903
C     57.160646    39.469452    45.130780
O     56.338708    39.071671    44.165885
O     56.742983    39.858686    46.207771
C     49.276000    33.777000    42.633000
H     50.083330    33.095900    42.924615
H     49.377092    33.969936    41.558195
C     49.295473    35.070215    43.444415
H     48.439771    35.710775    43.148206
H     49.127141    34.842573    44.515240
C     50.604225    35.844208    43.261268
H     50.759040    36.094621    42.190143
H     50.520574    36.825451    43.777978
C     51.796442    35.040676    43.792807
H     51.486806    34.342652    44.601415
H     52.255028    34.413452    42.993788
N     52.845235    35.980299    44.335816
H     52.436920    36.578630    45.079339
H     53.622543    35.461336    44.764713
H     53.212638    36.621621    43.568322
C     50.957000    37.559000    39.635000
H     51.552763    37.007699    40.385214
O     51.793178    37.962856    38.561225
H     52.724658    38.089752    38.866622
C     49.862526    36.696848    39.016686
H     49.362015    37.216392    38.190677
H     50.260885    35.758842    38.615692
H     49.096075    36.434905    39.751925
Mg    54.830916    38.333960    41.188542
O     56.352489    37.147741    42.288239
H     57.182310    37.336085    41.797178
H     56.432098    37.708072    43.084358
H     52.247000    40.514000    36.057000
H     59.245000    39.699000    45.553000
H     48.336000    33.234000    42.783000
H     50.547000    38.485000    40.081000
78
frame=89 E_kcal=-1519.1415
C     52.228861    36.581925    48.179435
C     53.693845    36.627760    47.710066
C     54.081385    37.884224    46.907976
C     52.884597    38.808508    46.620078
C     53.159185    39.792058    45.462724
C     51.204959    37.216590    47.215052
O     50.645861    36.138921    46.512195
O     52.109697    37.229120    49.425183
O     53.949438    35.553928    46.827655
O     54.949596    38.608794    47.754665
O     51.777940    38.033313    46.204748
O     53.665834    39.042716    44.363890
H     51.924780    35.527180    48.407073
H     54.367700    36.517884    48.599015
H     54.623142    37.588788    45.977708
H     52.607596    39.384195    47.536454
H     52.229415    40.365296    45.255191
H     53.959428    40.502626    45.767425
H     50.414709    37.808550    47.725031
H     49.956217    36.444958    45.870853
H     52.580660    38.098821    49.424007
H     53.798742    34.681044    47.263314
H     55.596835    39.128708    47.210377
H     55.309715    39.127937    44.339070
P     53.088785    39.252414    42.804430
O     51.754636    39.882116    42.844292
O     54.244722    40.019431    42.146696
O     53.196436    37.780795    42.342140
P     55.726572    38.512110    38.787093
O     56.565234    38.666666    40.069158
O     56.406182    37.918795    37.604467
O     54.394199    37.854326    39.232942
P     55.169021    41.387643    37.726312
O     54.913318    42.470567    38.741750
O     56.297262    41.583317    36.761018
O     55.162989    40.055743    38.627726
O     53.724336    41.378015    36.967445
C     53.341000    40.484000    35.919000
H     53.627223    40.889888    34.942033
H     53.674374    39.443221    36.002424
C     58.586000    39.405000    44.728000
H     58.801917    40.070114    43.868981
H     58.889834    38.386178    44.427849
C     57.161240    39.468610    45.131550
O     56.335462    39.061351    44.174846
O     56.745575    39.865723    46.206845
C     49.276000    33.777000    42.633000
H     50.083313    33.096418    42.925903
H     49.377910    33.969104    41.558111
C     49.293867    35.070994    43.443375
H     48.438934    35.711343    43.144895
H     49.123287    34.844088    44.514140
C     50.603153    35.844336    43.262353
H     50.759286    36.095818    42.191597
H     50.519455    36.825153    43.779969
C     51.793944    35.039791    43.794691
H     51.483960    34.344586    44.605592
H     52.250331    34.409154    42.996770
N     52.845278    35.978284    44.334463
H     52.439411    36.576529    45.079665
H     53.623413    35.458429    44.760184
H     53.209867    36.619862    43.565786
C     50.957000    37.559000    39.635000
H     51.556768    37.010678    40.384313
O     51.787481    37.964248    38.557016
H     52.718347    38.091284    38.859577
C     49.861727    36.692311    39.024340
H     49.356174    37.207840    38.198630
H     50.260537    35.753644    38.624642
H     49.099221    36.431292    39.764458
Mg    54.817533    38.327676    41.181866
O     56.331267    37.144314    42.292865
H     57.174658    37.356712    41.837797
H     56.376889    37.686439    43.103991
H     52.247000    40.514000    36.057000
H     59.245000    39.699000    45.553000
H     48.336000    33.234000    42.783000
H     50.547000    38.485000    40.081000
78
frame=90 E_kcal=-1519.3326
C     52.229452    36.582069    48.179027
C     53.694426    36.628416    47.709827
C     54.081905    37.884752    46.907529
C     52.885125    38.809038    46.620010
C     53.159102    39.792351    45.462706
C     51.205354    37.216623    47.215108
O     50.645959    36.139238    46.511994
O     52.109895    37.229068    49.424787
O     53.949424    35.554336    46.827606
O     54.950395    38.608992    47.753931
O     51.778530    38.033447    46.205167
O     53.665362    39.042907    44.363930
H     51.924968    35.527457    48.406416
H     54.367959    36.518014    48.598877
H     54.622876    37.588553    45.977074
H     52.608196    39.383724    47.536889
H     52.229308    40.366055    45.256205
H     53.960282    40.502068    45.766564
H     50.414825    37.808384    47.724577
H     49.956499    36.445314    45.870538
H     52.580897    38.098727    49.423902
H     53.798808    34.681236    47.262925
H     55.597652    39.128763    47.208564
H     55.308059    39.129862    44.342439
P     53.088828    39.251578    42.804391
O     51.754799    39.881730    42.844187
O     54.243475    40.019639    42.145726
O     53.194657    37.780383    42.342314
P     55.726349    38.511183    38.785316
O     56.563633    38.667001    40.068875
O     56.405334    37.917932    37.603632
O     54.392087    37.855415    39.230031
P     55.169915    41.386865    37.725604
O     54.912256    42.468429    38.742113
O     56.297520    41.582980    36.759384
O     55.166829    40.058034    38.632326
O     53.724164    41.376131    36.968319
C     53.341000    40.484000    35.919000
H     53.628304    40.891259    34.942170
H     53.675536    39.442885    36.002644
C     58.586000    39.405000    44.728000
H     58.802297    40.069730    43.869215
H     58.888423    38.385557    44.426766
C     57.161899    39.465657    45.133556
O     56.334678    39.060336    44.179265
O     56.745791    39.865677    46.209192
C     49.276000    33.777000    42.633000
H     50.083227    33.096423    42.926007
H     49.377996    33.968951    41.558092
C     49.293653    35.071132    43.443157
H     48.438676    35.711597    43.144507
H     49.123281    34.844329    44.513878
C     50.603024    35.844420    43.262370
H     50.759261    36.096030    42.191594
H     50.519436    36.825256    43.779930
C     51.793770    35.039790    43.794959
H     51.483443    34.344674    44.605751
H     52.249775    34.409182    42.997193
N     52.845404    35.977981    44.334227
H     52.439868    36.576248    45.079327
H     53.623533    35.458180    44.760040
H     53.209524    36.619617    43.565224
C     50.957000    37.559000    39.635000
H     51.557506    37.010993    40.384147
O     51.787340    37.964765    38.556950
H     52.720455    38.091087    38.858068
C     49.861887    36.691983    39.025190
H     49.356017    37.206645    38.199666
H     50.260495    35.753726    38.625258
H     49.099262    36.430733    39.765276
Mg    54.817058    38.328162    41.184041
O     56.327110    37.150423    42.291956
H     57.172400    37.352223    41.835437
H     56.382821    37.686554    43.107260
H     52.247000    40.514000    36.057000
H     59.245000    39.699000    45.553000
H     48.336000    33.234000    42.783000
H     50.547000    38.485000    40.081000
78
frame=91 E_kcal=-1518.8276
C     52.230263    36.582574    48.178323
C     53.695310    36.628858    47.709297
C     54.082782    37.884731    46.906619
C     52.886053    38.809496    46.620499
C     53.159062    39.793376    45.463081
C     51.206198    37.217154    47.214411
O     50.646606    36.139792    46.511292
O     52.110556    37.229047    49.424347
O     53.950109    35.555105    46.826727
O     54.951749    38.608991    47.752434
O     51.779549    38.034173    46.204907
O     53.663001    39.043083    44.364214
H     51.926013    35.527750    48.404710
H     54.369019    36.518765    48.598356
H     54.622508    37.588275    45.975247
H     52.609917    39.383265    47.538182
H     52.229425    40.368116    45.258471
H     53.962512    40.501490    45.764753
H     50.415172    37.808269    47.723895
H     49.957489    36.446526    45.869677
H     52.581655    38.098619    49.423689
H     53.798961    34.682249    47.261992
H     55.599240    39.128170    47.205533
H     55.304974    39.133648    44.352034
P     53.087414    39.250728    42.803498
O     51.753569    39.881366    42.844200
O     54.240045    40.020407    42.144807
O     53.190325    37.778761    42.343012
P     55.723777    38.511951    38.781721
O     56.560077    38.665439    40.067663
O     56.403520    37.915546    37.601205
O     54.391180    37.855568    39.227224
P     55.171504    41.383307    37.724982
O     54.911202    42.464764    38.742013
O     56.296564    41.582492    36.755798
O     55.178738    40.064333    38.643275
O     53.724303    41.372502    36.971712
C     53.341000    40.484000    35.919000
H     53.630070    40.893786    34.944153
H     53.677071    39.443524    36.001827
C     58.586000    39.405000    44.728000
H     58.801700    40.069715    43.869581
H     58.885698    38.385357    44.424245
C     57.163351    39.465136    45.138948
O     56.332012    39.057352    44.189688
O     56.751722    39.866799    46.215630
C     49.276000    33.777000    42.633000
H     50.083101    33.096492    42.926431
H     49.378262    33.968500    41.558022
C     49.293219    35.071623    43.442538
H     48.438331    35.711944    43.143454
H     49.122872    34.845023    44.513346
C     50.602651    35.844863    43.262297
H     50.759344    36.096556    42.191674
H     50.519281    36.825625    43.779894
C     51.792876    35.039678    43.795403
H     51.482059    34.345065    44.606489
H     52.248440    34.408513    42.997784
N     52.845675    35.977406    44.333809
H     52.440571    36.575770    45.078964
H     53.623917    35.457427    44.759151
H     53.209122    36.619284    43.564007
C     50.957000    37.559000    39.635000
H     51.559277    37.012187    40.383498
O     51.785375    37.965898    38.556089
H     52.720591    38.090637    38.854081
C     49.861716    36.690566    39.027266
H     49.354801    37.204170    38.201719
H     50.260959    35.752678    38.627051
H     49.099879    36.429234    39.768048
Mg    54.815637    38.329404    41.184990
O     56.318141    37.160549    42.290726
H     57.164946    37.341999    41.829709
H     56.396851    37.687574    43.111212
H     52.247000    40.514000    36.057000
H     59.245000    39.699000    45.553000
H     48.336000    33.234000    42.783000
H     50.547000    38.485000    40.081000
78
frame=92 E_kcal=-1519.1344
C     52.231905    36.583080    48.176831
C     53.696840    36.629651    47.707730
C     54.083792    37.885266    46.904236
C     52.887063    38.810713    46.620886
C     53.159140    39.795240    45.463936
C     51.207563    37.218158    47.213501
O     50.648346    36.141262    46.509347
O     52.112070    37.228803    49.423207
O     53.952240    35.555944    46.825532
O     54.954539    38.608280    47.748882
O     51.780345    38.036255    46.204736
O     53.658220    39.043265    44.364286
H     51.928031    35.527870    48.402214
H     54.370804    36.520070    48.596679
H     54.621857    37.588166    45.972407
H     52.612865    39.382981    47.539973
H     52.230726    40.372077    45.262205
H     53.965062    40.501591    45.763251
H     50.416309    37.808823    47.723106
H     49.959659    36.448657    45.867522
H     52.583171    38.098389    49.423429
H     53.799265    34.682643    47.259878
H     55.603177    39.127193    47.203518
H     55.302236    39.133892    44.369444
P     53.081572    39.250462    42.804884
O     51.747929    39.881676    42.844635
O     54.234105    40.021011    42.145268
O     53.185129    37.779163    42.342970
P     55.719156    38.508722    38.781512
O     56.558434    38.658260    40.065602
O     56.397938    37.914398    37.598380
O     54.387388    37.849739    39.224998
P     55.171672    41.383144    37.724277
O     54.914849    42.465167    38.741640
O     56.292448    41.580961    36.749883
O     55.204643    40.074968    38.659891
O     53.722122    41.365648    36.977287
C     53.341000    40.484000    35.919000
H     53.631407    40.898356    34.946258
H     53.676925    39.442846    35.997135
C     58.586000    39.405000    44.728000
H     58.797955    40.071656    43.869751
H     58.882733    38.386222    44.420733
C     57.165338    39.468713    45.148533
O     56.328649    39.053953    44.206879
O     56.765699    39.871948    46.228527
C     49.276000    33.777000    42.633000
H     50.083004    33.096854    42.927552
H     49.378869    33.967564    41.557943
C     49.292659    35.072317    43.441548
H     48.437984    35.712241    43.141208
H     49.121173    34.846540    44.512419
C     50.602271    35.845500    43.262143
H     50.759819    36.097618    42.191795
H     50.518804    36.826223    43.779899
C     51.791655    35.039573    43.795691
H     51.479877    34.346723    44.607999
H     52.245759    34.406488    42.998742
N     52.845555    35.976767    44.332747
H     52.441224    36.574564    45.078626
H     53.624254    35.456255    44.756488
H     53.208502    36.619875    43.563340
C     50.957000    37.559000    39.635000
H     51.562662    37.014387    40.382350
O     51.781821    37.965453    38.552694
H     52.716590    38.092236    38.849005
C     49.861857    36.687809    39.031036
H     49.351763    37.199434    38.205913
H     50.261877    35.749738    38.631450
H     49.102362    36.426169    39.774012
Mg    54.808933    38.333022    41.181544
O     56.310499    37.162739    42.295681
H     57.149895    37.328590    41.816702
H     56.410924    37.694298    43.109198
H     52.247000    40.514000    36.057000
H     59.245000    39.699000    45.553000
H     48.336000    33.234000    42.783000
H     50.547000    38.485000    40.081000
78
frame=93 E_kcal=-1519.5343
C     52.233930    36.583479    48.174777
C     53.698971    36.630283    47.705187
C     54.086132    37.886291    46.901700
C     52.888645    38.812526    46.621904
C     53.158799    39.797982    45.465406
C     51.208967    37.219382    47.212611
O     50.650517    36.143130    46.506729
O     52.114292    37.227934    49.421869
O     53.955085    35.556230    46.823467
O     54.958504    38.607509    47.745959
O     51.781200    38.039399    46.205358
O     53.655011    39.044263    44.365182
H     51.930280    35.528169    48.399871
H     54.372806    36.521680    48.594351
H     54.621249    37.588632    45.968166
H     52.615356    39.383668    47.541836
H     52.231348    40.377782    45.265886
H     53.966576    40.502718    45.763278
H     50.417670    37.809160    47.723330
H     49.962521    36.451088    45.864445
H     52.585098    38.097672    49.422763
H     53.799674    34.682906    47.257109
H     55.609404    39.126907    47.202591
H     55.303062    39.125909    44.385515
P     53.076287    39.252612    42.807100
O     51.741061    39.881584    42.847294
O     54.226817    40.024056    42.144426
O     53.179171    37.781925    42.342352
P     55.714627    38.504721    38.782351
O     56.552240    38.646868    40.068155
O     56.387399    37.915041    37.594400
O     54.382208    37.848274    39.224111
P     55.171228    41.381937    37.725772
O     54.922973    42.469388    38.740042
O     56.284580    41.578486    36.742804
O     55.244030    40.085425    38.673218
O     53.716915    41.357155    36.987788
C     53.341000    40.484000    35.919000
H     53.631333    40.904384    34.949575
H     53.675328    39.442309    35.989799
C     58.586000    39.405000    44.728000
H     58.792394    40.074142    43.870825
H     58.881256    38.386548    44.417885
C     57.168113    39.467104    45.156987
O     56.327270    39.046846    44.221404
O     56.773569    39.876264    46.236207
C     49.276000    33.777000    42.633000
H     50.082871    33.097326    42.929032
H     49.379723    33.966411    41.557818
C     49.291626    35.073167    43.440095
H     48.437426    35.712899    43.137959
H     49.118610    34.848598    44.510996
C     50.601551    35.846108    43.261647
H     50.760120    36.098828    42.191515
H     50.517928    36.826558    43.780003
C     51.790236    35.039715    43.795939
H     51.477971    34.348964    44.609856
H     52.242944    34.404252    43.000125
N     52.845294    35.976439    44.331637
H     52.442381    36.573288    45.079076
H     53.624802    35.455286    44.753200
H     53.206863    36.620438    43.562589
C     50.957000    37.559000    39.635000
H     51.566741    37.016748    40.381046
O     51.777939    37.965311    38.549517
H     52.712769    38.093658    38.843745
C     49.861955    36.684095    39.036676
H     49.348108    37.192717    38.212130
H     50.262873    35.746236    38.637548
H     49.105519    36.421892    39.782686
Mg    54.799214    38.332736    41.181296
O     56.305920    37.161123    42.305435
H     57.133898    37.317061    41.804075
H     56.413808    37.711388    43.105508
H     52.247000    40.514000    36.057000
H     59.245000    39.699000    45.553000
H     48.336000    33.234000    42.783000
H     50.547000    38.485000    40.081000
78
frame=94 E_kcal=-1519.6000
C     52.236388    36.583618    48.172732
C     53.700938    36.631067    47.702576
C     54.087331    37.887529    46.899830
C     52.890270    38.815024    46.622873
C     53.159656    39.801514    45.467187
C     51.210948    37.220582    47.212009
O     50.653090    36.145331    46.504133
O     52.117659    37.226659    49.420544
O     53.957333    35.557412    46.820714
O     54.961322    38.605406    47.745114
O     51.782657    38.042434    46.206038
O     53.653968    39.047920    44.365950
H     51.932618    35.528071    48.396383
H     54.375299    36.522580    48.591511
H     54.621111    37.591221    45.965264
H     52.618592    39.384678    47.544127
H     52.232171    40.381688    45.269398
H     53.968169    40.505599    45.764095
H     50.419022    37.808212    47.724011
H     49.965980    36.454090    45.861252
H     52.587672    38.096873    49.421884
H     53.800665    34.684328    47.254214
H     55.612341    39.124639    47.203058
H     55.301172    39.114433    44.396545
P     53.072054    39.256435    42.809375
O     51.735863    39.882861    42.853527
O     54.219324    40.026794    42.140868
O     53.170672    37.784211    42.345725
P     55.709529    38.502476    38.782779
O     56.545346    38.635876    40.071494
O     56.376460    37.912700    37.591148
O     54.374201    37.853706    39.223668
P     55.173861    41.380494    37.724514
O     54.931688    42.470970    38.736116
O     56.276342    41.576943    36.729276
O     55.288079    40.098325    38.689277
O     53.712483    41.342163    37.001833
C     53.341000    40.484000    35.919000
H     53.633172    40.914595    34.954302
H     53.676001    39.441381    35.982209
C     58.586000    39.405000    44.728000
H     58.788109    40.076681    43.871358
H     58.883121    38.388137    44.415397
C     57.169896    39.466041    45.160868
O     56.325757    39.037060    44.231959
O     56.775359    39.879478    46.239431
C     49.276000    33.777000    42.633000
H     50.082658    33.097851    42.930704
H     49.380720    33.964935    41.557656
C     49.290390    35.074302    43.438248
H     48.436765    35.713771    43.133805
H     49.115554    34.851181    44.509055
C     50.600712    35.846879    43.261336
H     50.760065    36.099762    42.191328
H     50.516785    36.827215    43.779841
C     51.788548    35.039972    43.796801
H     51.475666    34.350753    44.611851
H     52.240502    34.402868    43.001961
N     52.845013    35.976200    44.330658
H     52.444012    36.572494    45.079455
H     53.625685    35.454755    44.749762
H     53.204412    36.620407    43.560982
C     50.957000    37.559000    39.635000
H     51.571068    37.019676    40.379718
O     51.772070    37.967603    38.546171
H     52.709104    38.092180    38.837117
C     49.861936    36.679636    39.043307
H     49.343222    37.184676    38.219745
H     50.263900    35.741966    38.644941
H     49.109472    36.417138    39.793160
Mg    54.787233    38.327135    41.183972
O     56.293543    37.164182    42.308823
H     57.121601    37.306138    41.802449
H     56.414082    37.727952    43.097330
H     52.247000    40.514000    36.057000
H     59.245000    39.699000    45.553000
H     48.336000    33.234000    42.783000
H     50.547000    38.485000    40.081000
78
frame=95 E_kcal=-1520.5039
C     52.238608    36.583348    48.171118
C     53.702774    36.631028    47.700106
C     54.088830    37.888683    46.899210
C     52.892202    38.817397    46.624495
C     53.160938    39.805276    45.469718
C     51.213009    37.221704    47.211417
O     50.655987    36.147326    46.501387
O     52.120940    37.225195    49.419658
O     53.958690    35.558147    46.817136
O     54.963579    38.604383    47.745620
O     51.783461    38.046482    46.207247
O     53.652531    39.052268    44.367348
H     51.934945    35.527353    48.393104
H     54.377844    36.522061    48.588461
H     54.621788    37.594204    45.963550
H     52.621645    39.386160    47.546448
H     52.233117    40.385029    45.272880
H     53.969810    40.509469    45.765737
H     50.420475    37.807486    47.724525
H     49.969737    36.457483    45.858128
H     52.590681    38.095586    49.420940
H     53.802741    34.684884    47.250457
H     55.614769    39.124334    47.204623
H     55.300025    39.106923    44.402721
P     53.066096    39.259384    42.812529
O     51.731506    39.889231    42.861931
O     54.211197    40.024566    42.135672
O     53.160608    37.785918    42.351647
P     55.705054    38.504333    38.786129
O     56.542548    38.625805    40.075589
O     56.364680    37.906798    37.593684
O     54.365116    37.860065    39.222601
P     55.177694    41.381022    37.721192
O     54.942210    42.473618    38.731274
O     56.267399    41.576388    36.711057
O     55.334710    40.111411    38.697466
O     53.707764    41.323381    37.018499
C     53.341000    40.484000    35.919000
H     53.635741    40.927028    34.961573
H     53.676204    39.441234    35.970547
C     58.586000    39.405000    44.728000
H     58.786420    40.078301    43.872586
H     58.885414    38.389717    44.413250
C     57.169536    39.463976    45.164735
O     56.324744    39.028398    44.240117
O     56.776428    39.883283    46.241133
C     49.276000    33.777000    42.633000
H     50.082475    33.098476    42.932658
H     49.381784    33.963181    41.557478
C     49.289041    35.075518    43.436490
H     48.436228    35.714617    43.128978
H     49.111754    34.854065    44.507289
C     50.599824    35.847653    43.261196
H     50.760665    36.100503    42.191372
H     50.515773    36.828155    43.779356
C     51.786782    35.040151    43.797828
H     51.472889    34.352451    44.613845
H     52.237847    34.401511    43.003721
N     52.844522    35.975988    44.329734
H     52.445563    36.572199    45.079537
H     53.626345    35.454317    44.746447
H     53.201520    36.621592    43.559105
C     50.957000    37.559000    39.635000
H     51.576636    37.023247    40.377813
O     51.764242    37.969909    38.541400
H     52.703830    38.089732    38.827016
C     49.861831    36.674640    39.050671
H     49.337435    37.175810    38.228341
H     50.264957    35.737108    38.653125
H     49.114035    36.412080    39.804901
Mg    54.774773    38.322303    41.179707
O     56.282908    37.166368    42.306312
H     57.112813    37.293227    41.799858
H     56.407149    37.735625    43.090639
H     52.247000    40.514000    36.057000
H     59.245000    39.699000    45.553000
H     48.336000    33.234000    42.783000
H     50.547000    38.485000    40.081000
78
frame=96 E_kcal=-1520.5672
C     52.240860    36.582983    48.169372
C     53.704954    36.630988    47.697892
C     54.091001    37.890281    46.899011
C     52.894186    38.819868    46.626741
C     53.161558    39.808486    45.472058
C     51.214866    37.222890    47.211158
O     50.658808    36.149667    46.498541
O     52.123573    37.223693    49.418480
O     53.959729    35.559113    46.813316
O     54.966261    38.604656    47.746001
O     51.784759    38.050320    46.209261
O     53.652684    39.056195    44.368678
H     51.936976    35.526990    48.390984
H     54.380240    36.519838    48.585812
H     54.623343    37.596561    45.962684
H     52.624481    39.387786    47.549682
H     52.233700    40.389795    45.277771
H     53.970884    40.512138    45.767804
H     50.421643    37.806859    47.725398
H     49.973377    36.460651    45.854863
H     52.593837    38.093670    49.420404
H     53.805570    34.684963    47.245813
H     55.617388    39.126551    47.206052
H     55.301680    39.103911    44.406848
P     53.059951    39.261307    42.815986
O     51.729163    39.897173    42.870188
O     54.203994    40.022082    42.130616
O     53.149603    37.787184    42.354803
P     55.705756    38.502855    38.790212
O     56.541308    38.623158    40.081620
O     56.357069    37.899431    37.596582
O     54.357767    37.871213    39.218990
P     55.183063    41.382985    37.715195
O     54.959013    42.478687    38.727845
O     56.257511    41.577511    36.690935
O     55.365140    40.113841    38.687313
O     53.701879    41.303595    37.037419
C     53.341000    40.484000    35.919000
H     53.637305    40.941033    34.968541
H     53.675431    39.440086    35.955735
C     58.586000    39.405000    44.728000
H     58.784847    40.080328    43.873428
H     58.885645    38.390148    44.411603
C     57.170046    39.462545    45.165356
O     56.325187    39.021401    44.242650
O     56.778040    39.883900    46.240778
C     49.276000    33.777000    42.633000
H     50.082272    33.099155    42.934703
H     49.382917    33.961567    41.557324
C     49.287692    35.076815    43.434398
H     48.435683    35.715599    43.124073
H     49.107797    34.857084    44.505087
C     50.598967    35.848376    43.260777
H     50.761590    36.101163    42.191221
H     50.514791    36.828781    43.778930
C     51.785035    35.040519    43.798702
H     51.470587    34.354592    44.615875
H     52.234903    34.399886    43.005581
N     52.843687    35.976260    44.328705
H     52.446392    36.571431    45.080007
H     53.626604    35.454472    44.742938
H     53.198288    36.623456    43.557627
C     50.957000    37.559000    39.635000
H     51.583381    37.027082    40.374989
O     51.756399    37.969238    38.535300
H     52.697804    38.090228    38.814303
C     49.861783    36.669573    39.059028
H     49.331815    37.166526    38.237800
H     50.265853    35.732388    38.661649
H     49.118493    36.406589    39.817450
Mg    54.760525    38.318719    41.180527
O     56.273642    37.162673    42.303972
H     57.103478    37.283590    41.796280
H     56.398244    37.733820    43.086213
H     52.247000    40.514000    36.057000
H     59.245000    39.699000    45.553000
H     48.336000    33.234000    42.783000
H     50.547000    38.485000    40.081000
78
frame=97 E_kcal=-1520.7184
C     52.242980    36.582805    48.168260
C     53.706877    36.631181    47.696168
C     54.092798    37.891520    46.899397
C     52.896247    38.821459    46.628517
C     53.163059    39.811202    45.474753
C     51.216700    37.223729    47.211053
O     50.661277    36.151691    46.495893
O     52.126357    37.222447    49.418052
O     53.961228    35.561250    46.809113
O     54.968322    38.604683    47.747214
O     51.786087    38.053201    46.210796
O     53.652759    39.060078    44.370018
H     51.939108    35.526610    48.388907
H     54.382607    36.517540    48.583392
H     54.625071    37.599449    45.962630
H     52.628059    39.388570    47.552247
H     52.235403    40.393265    45.282389
H     53.973059    40.514359    45.769669
H     50.422950    37.805839    47.726550
H     49.976829    36.464003    45.851725
H     52.597300    38.092145    49.420721
H     53.808406    34.686376    47.240493
H     55.617961    39.127767    47.206970
H     55.302730    39.102360    44.406824
P     53.055804    39.264627    42.819171
O     51.725958    39.903654    42.877732
O     54.199001    40.022360    42.129655
O     53.136824    37.790776    42.357866
P     55.705632    38.501569    38.787762
O     56.535732    38.627446    40.081484
O     56.360765    37.888112    37.600413
O     54.352096    37.883295    39.218369
P     55.186829    41.378802    37.706153
O     54.980804    42.476009    38.719224
O     56.248704    41.581386    36.667637
O     55.372004    40.112085    38.678366
O     53.697406    41.285544    37.051436
C     53.341000    40.484000    35.919000
H     53.637496    40.955537    34.975790
H     53.675434    39.439892    35.941891
C     58.586000    39.405000    44.728000
H     58.784216    40.081412    43.874168
H     58.885940    38.390699    44.410209
C     57.170317    39.460118    45.163736
O     56.325383    39.016500    44.241841
O     56.777039    39.883406    46.238588
C     49.276000    33.777000    42.633000
H     50.082112    33.099866    42.936661
H     49.384153    33.959896    41.557153
C     49.286290    35.078185    43.432130
H     48.435096    35.716767    43.119009
H     49.104203    34.860213    44.502819
C     50.598099    35.849154    43.260059
H     50.762139    36.102003    42.190679
H     50.513554    36.829491    43.778435
C     51.783222    35.040780    43.799591
H     51.468385    34.356814    44.618231
H     52.232533    34.398294    43.007518
N     52.842531    35.976582    44.328053
H     52.446505    36.570487    45.081020
H     53.627136    35.455092    44.739306
H     53.194477    36.625068    43.556742
C     50.957000    37.559000    39.635000
H     51.589888    37.031004    40.372527
O     51.750568    37.965344    38.528893
H     52.691247    38.096421    38.802480
C     49.861744    36.664647    39.067649
H     49.325721    37.157479    38.247696
H     50.266647    35.727358    38.670714
H     49.122843    36.400945    39.830814
Mg    54.750915    38.314646    41.179529
O     56.262059    37.156601    42.303519
H     57.091028    37.278350    41.794558
H     56.392840    37.726229    43.085592
H     52.247000    40.514000    36.057000
H     59.245000    39.699000    45.553000
H     48.336000    33.234000    42.783000
H     50.547000    38.485000    40.081000
78
frame=98 E_kcal=-1520.2410
C     52.245169    36.582440    48.167423
C     53.708785    36.631028    47.694703
C     54.094416    37.892444    46.899840
C     52.898279    38.823063    46.630212
C     53.165550    39.813608    45.477263
C     51.218732    37.224421    47.211133
O     50.663468    36.153347    46.494111
O     52.129332    37.221087    49.417834
O     53.962409    35.563191    46.804997
O     54.969513    38.604545    47.749052
O     51.787379    38.055918    46.212191
O     53.652960    39.063186    44.370999
H     51.941310    35.526093    48.387095
H     54.384985    36.515969    48.581475
H     54.627203    37.602178    45.962617
H     52.630668    39.389271    47.554833
H     52.237803    40.396078    45.286341
H     53.976563    40.515917    45.772043
H     50.424418    37.804905    47.727537
H     49.980445    36.467399    45.849208
H     52.600924    38.090516    49.421358
H     53.811238    34.687286    47.234506
H     55.618397    39.128102    47.208476
H     55.301753    39.100854    44.402239
P     53.050669    39.268868    42.822111
O     51.722687    39.910668    42.884621
O     54.196170    40.022454    42.131292
O     53.128701    37.795852    42.358319
P     55.703367    38.500922    38.785697
O     56.528708    38.628549    40.082713
O     56.366896    37.875271    37.609165
O     54.346720    37.885064    39.211092
P     55.191736    41.375279    37.695999
O     55.000931    42.473004    38.711059
O     56.237887    41.578202    36.642601
O     55.370907    40.110267    38.672254
O     53.697728    41.275260    37.057363
C     53.341000    40.484000    35.919000
H     53.635627    40.966821    34.980448
H     53.676955    39.440740    35.930213
C     58.586000    39.405000    44.728000
H     58.784771    40.081875    43.874561
H     58.887731    38.391523    44.409055
C     57.169352    39.459216    45.162099
O     56.325223    39.013224    44.240199
O     56.773874    39.883477    46.235179
C     49.276000    33.777000    42.633000
H     50.082019    33.100641    42.938683
H     49.385416    33.957956    41.556957
C     49.284942    35.079457    43.429947
H     48.434648    35.717748    43.113791
H     49.100683    34.863528    44.500684
C     50.597226    35.849826    43.259418
H     50.762581    36.102883    42.190357
H     50.512461    36.830318    43.777394
C     51.781404    35.041207    43.800572
H     51.465479    34.358882    44.620275
H     52.230409    34.396980    43.009857
N     52.841284    35.977245    44.327409
H     52.446733    36.569633    45.082196
H     53.627478    35.455910    44.736001
H     53.190246    36.627553    43.556182
C     50.957000    37.559000    39.635000
H     51.594874    37.035154    40.371456
O     51.744513    37.962166    38.523074
H     52.683799    38.105819    38.795514
C     49.861310    36.659639    39.076684
H     49.319053    37.148157    38.258391
H     50.267024    35.722438    38.680439
H     49.127665    36.395696    39.844875
Mg    54.745338    38.316588    41.178313
O     56.250689    37.152178    42.304220
H     57.077572    37.273353    41.791304
H     56.385505    37.716422    43.089764
H     52.247000    40.514000    36.057000
H     59.245000    39.699000    45.553000
H     48.336000    33.234000    42.783000
H     50.547000    38.485000    40.081000
78
frame=99 E_kcal=-1520.2641
C     52.247346    36.581816    48.166629
C     53.710698    36.630498    47.693141
C     54.096231    37.893424    46.900442
C     52.900056    38.824429    46.632080
C     53.167552    39.815384    45.479540
C     51.220631    37.225238    47.211598
O     50.665673    36.155138    46.492898
O     52.132265    37.219389    49.417620
O     53.963464    35.564222    46.801333
O     54.971684    38.604349    47.750424
O     51.788714    38.058245    46.213727
O     53.652679    39.064973    44.372011
H     51.943306    35.525526    48.385692
H     54.387330    36.514157    48.579288
H     54.629085    37.604544    45.962837
H     52.632438    39.390140    47.557015
H     52.240971    40.400078    45.290306
H     53.980259    40.515672    45.774208
H     50.426063    37.804674    47.728728
H     49.983936    36.470166    45.847165
H     52.604538    38.088360    49.421738
H     53.813861    34.687162    47.229017
H     55.620207    39.129208    47.210645
H     55.302006    39.100726    44.397787
P     53.048442    39.272204    42.824087
O     51.722135    39.917656    42.890192
O     54.193164    40.026399    42.133195
O     53.123853    37.800104    42.357330
P     55.700178    38.496523    38.786552
O     56.519099    38.623929    40.088670
O     56.372687    37.866651    37.617787
O     54.341478    37.880752    39.205553
P     55.194835    41.372634    37.688384
O     55.018641    42.473777    38.702622
O     56.229861    41.563807    36.622125
O     55.378738    40.109059    38.670465
O     53.695921    41.274641    37.060075
C     53.341000    40.484000    35.919000
H     53.631295    40.971093    34.980578
H     53.679480    39.441334    35.923303
C     58.586000    39.405000    44.728000
H     58.785093    40.082291    43.874999
H     58.888599    38.392097    44.408768
C     57.167991    39.458604    45.159947
O     56.324993    39.011786    44.236985
O     56.771860    39.885089    46.232330
C     49.276000    33.777000    42.633000
H     50.081785    33.101336    42.940819
H     49.386535    33.956060    41.556775
C     49.283657    35.080870    43.427767
H     48.434057    35.718661    43.108705
H     49.096970    34.866761    44.498483
C     50.596370    35.850844    43.258569
H     50.763274    36.103377    42.189607
H     50.511324    36.831456    43.776345
C     51.779634    35.042115    43.801387
H     51.462767    34.361332    44.621990
H     52.228209    34.395738    43.012148
N     52.839950    35.978542    44.326684
H     52.446997    36.569404    45.083542
H     53.627628    35.457329    44.732501
H     53.186317    36.630393    43.555518
C     50.957000    37.559000    39.635000
H     51.599418    37.039193    40.370708
O     51.739167    37.963753    38.520200
H     52.678012    38.113430    38.790842
C     49.860790    36.654623    39.085787
H     49.312098    37.138725    38.269478
H     50.267005    35.717488    38.690280
H     49.132771    36.391077    39.859509
Mg    54.738685    38.322258    41.173119
O     56.238584    37.146223    42.303325
H     57.065029    37.268508    41.790853
H     56.376240    37.706926    43.091258
H     52.247000    40.514000    36.057000
H     59.245000    39.699000    45.553000
H     48.336000    33.234000    42.783000
H     50.547000    38.485000    40.081000
78
frame=100 E_kcal=-1520.1479
C     52.249525    36.581111    48.165952
C     53.712803    36.630220    47.691673
C     54.098395    37.894396    46.900987
C     52.902016    38.825502    46.633575
C     53.170007    39.816590    45.481340
C     51.222336    37.225673    47.212095
O     50.667420    36.156475    46.492122
O     52.135465    37.217543    49.417657
O     53.964664    35.565298    46.797909
O     54.974427    38.604198    47.751419
O     51.790406    38.059901    46.215117
O     53.653438    39.065472    44.372933
H     51.945156    35.524629    48.384056
H     54.389818    36.511375    48.577132
H     54.630833    37.606597    45.962751
H     52.634635    39.390936    47.558671
H     52.244786    40.404352    45.293914
H     53.984757    40.514543    45.775678
H     50.428100    37.804701    47.730340
H     49.986893    36.472461    45.845493
H     52.608275    38.086238    49.422231
H     53.816041    34.687632    47.224769
H     55.622182    39.130240    47.211514
H     55.303932    39.101354    44.395657
P     53.047972    39.277243    42.826208
O     51.721996    39.923489    42.894032
O     54.190860    40.031797    42.132906
O     53.119309    37.805315    42.357563
P     55.698217    38.491491    38.788724
O     56.512033    38.622222    40.092966
O     56.376458    37.862862    37.622594
O     54.337303    37.879495    39.203051
P     55.197017    41.364812    37.684833
O     55.035507    42.473684    38.690707
O     56.227943    41.541842    36.610546
O     55.389812    40.105629    38.667841
O     53.696843    41.272872    37.060306
C     53.341000    40.484000    35.919000
H     53.628345    40.970252    34.979689
H     53.681580    39.442352    35.924461
C     58.586000    39.405000    44.728000
H     58.785222    40.082612    43.875081
H     58.888204    38.391586    44.408921
C     57.168062    39.458173    45.156625
O     56.325878    39.011868    44.232464
O     56.769732    39.884952    46.228377
C     49.276000    33.777000    42.633000
H     50.081485    33.101984    42.942976
H     49.387630    33.954256    41.556566
C     49.282291    35.082311    43.425352
H     48.433315    35.719712    43.103693
H     49.093453    34.870091    44.495999
C     50.595344    35.851957    43.257469
H     50.763725    36.103797    42.188525
H     50.509785    36.832742    43.774839
C     51.777920    35.043455    43.802097
H     51.460644    34.364503    44.624065
H     52.226096    34.395226    43.014220
N     52.838832    35.980157    44.325803
H     52.447106    36.569876    45.084229
H     53.628121    35.459210    44.728849
H     53.182942    36.632816    43.554760
C     50.957000    37.559000    39.635000
H     51.604602    37.042568    40.368666
O     51.734017    37.968651    38.517885
H     52.674306    38.114853    38.785341
C     49.860976    36.649981    39.094098
H     49.304925    37.129584    38.280223
H     50.267039    35.712344    38.699822
H     49.138998    36.387126    39.873604
Mg    54.727912    38.326507    41.171841
O     56.225811    37.142078    42.302466
H     57.054271    37.262358    41.793158
H     56.363367    37.699546    43.091722
H     52.247000    40.514000    36.057000
H     59.245000    39.699000    45.553000
H     48.336000    33.234000    42.783000
H     50.547000    38.485000    40.081000
78
frame=101 E_kcal=-1520.3847
C     52.251990    36.580509    48.165273
C     53.714972    36.629699    47.690477
C     54.100169    37.894475    46.901300
C     52.904369    38.826171    46.634593
C     53.173882    39.818021    45.483254
C     51.224661    37.226131    47.212522
O     50.668782    36.157652    46.492030
O     52.138837    37.215563    49.417728
O     53.965646    35.566288    46.794656
O     54.976071    38.603710    47.752237
O     51.792389    38.061131    46.215934
O     53.654286    39.068272    44.372803
H     51.947621    35.523825    48.382181
H     54.392428    36.508888    48.575379
H     54.632779    37.608169    45.962687
H     52.637403    39.391516    47.559995
H     52.249789    40.407126    45.296679
H     53.990652    40.514003    45.777115
H     50.430652    37.804459    47.731780
H     49.989502    36.474876    45.844632
H     52.612006    38.084079    49.422953
H     53.817969    34.688380    47.221013
H     55.623081    39.129593    47.211674
H     55.303868    39.102056    44.393213
P     53.045332    39.283069    42.828065
O     51.720422    39.930405    42.898138
O     54.188057    40.035914    42.133235
O     53.112879    37.810523    42.360153
P     55.698648    38.485869    38.789975
O     56.508331    38.622598    40.096303
O     56.376937    37.856980    37.624683
O     54.333388    37.880483    39.200887
P     55.204922    41.357737    37.679614
O     55.050393    42.473829    38.680261
O     56.234593    41.519471    36.602445
O     55.396293    40.102403    38.668964
O     53.700617    41.271662    37.060886
C     53.341000    40.484000    35.919000
H     53.629807    40.967968    34.978919
H     53.679920    39.441029    35.927617
C     58.586000    39.405000    44.728000
H     58.786754    40.081955    43.874826
H     58.888331    38.391638    44.409138
C     57.167497    39.458180    45.154551
O     56.326139    39.011700    44.229284
O     56.767392    39.885558    46.225036
C     49.276000    33.777000    42.633000
H     50.081291    33.102760    42.945124
H     49.388831    33.952259    41.556393
C     49.281012    35.083741    43.423029
H     48.432697    35.720642    43.098499
H     49.090156    34.873569    44.493715
C     50.594361    35.853150    43.256253
H     50.763887    36.104442    42.187350
H     50.508038    36.834355    43.772615
C     51.776374    35.045085    43.802745
H     51.458627    34.368158    44.626324
H     52.224121    34.395136    43.016011
N     52.837998    35.982117    44.324527
H     52.447604    36.571122    45.084095
H     53.628335    35.461258    44.725682
H     53.179912    36.635785    43.553191
C     50.957000    37.559000    39.635000
H     51.610380    37.045375    40.365943
O     51.729556    37.969354    38.514885
H     52.671560    38.112408    38.778732
C     49.861340    36.645569    39.101957
H     49.298772    37.120952    38.289931
H     50.267851    35.707696    38.708204
H     49.145147    36.382870    39.886796
Mg    54.720350    38.326674    41.170091
O     56.212766    37.137623    42.303966
H     57.043100    37.255853    41.796649
H     56.349180    37.696526    43.092011
H     52.247000    40.514000    36.057000
H     59.245000    39.699000    45.553000
H     48.336000    33.234000    42.783000
H     50.547000    38.485000    40.081000
78
frame=102 E_kcal=-1520.4127
C     52.254482    36.579736    48.164697
C     53.717177    36.628776    47.689186
C     54.102335    37.894380    46.901222
C     52.906896    38.826813    46.635170
C     53.177244    39.820258    45.485251
C     51.227165    37.226899    47.212899
O     50.670408    36.159243    46.491928
O     52.142015    37.213549    49.417861
O     53.966750    35.566220    46.791926
O     54.978296    38.602935    47.752753
O     51.794366    38.062656    46.216430
O     53.654167    39.071823    44.372356
H     51.950147    35.522797    48.380652
H     54.395175    36.507133    48.573552
H     54.634891    37.608609    45.962398
H     52.640220    39.391513    47.560979
H     52.254176    40.411432    45.300633
H     53.996440    40.513434    45.779721
H     50.433583    37.804969    47.733015
H     49.991739    36.477306    45.844485
H     52.615662    38.081850    49.423872
H     53.819814    34.687536    47.217098
H     55.624785    39.129577    47.212215
H     55.303016    39.103096    44.389591
P     53.041144    39.287340    42.829451
O     51.718301    39.938908    42.903308
O     54.185226    40.035611    42.131527
O     53.105635    37.814972    42.360387
P     55.696870    38.484788    38.792089
O     56.506572    38.617423    40.098452
O     56.374513    37.848935    37.629783
O     54.330605    37.880154    39.199365
P     55.213901    41.352991    37.673211
O     55.066140    42.473734    38.669395
O     56.245412    41.501412    36.597223
O     55.396361    40.100189    38.666642
O     53.708151    41.270684    37.058317
C     53.341000    40.484000    35.919000
H     53.633111    40.965471    34.978951
H     53.673923    39.439231    35.927812
C     58.586000    39.405000    44.728000
H     58.788689    40.081161    43.874722
H     58.888972    38.391471    44.409839
C     57.166695    39.458725    45.153144
O     56.326031    39.010890    44.228267
O     56.765861    39.887285    46.223257
C     49.276000    33.777000    42.633000
H     50.081176    33.103581    42.947304
H     49.390068    33.950220    41.556191
C     49.279920    35.085201    43.420723
H     48.432073    35.721411    43.093265
H     49.087083    34.877039    44.491433
C     50.593370    35.854666    43.254813
H     50.764108    36.105076    42.185908
H     50.506487    36.836283    43.770289
C     51.774845    35.047184    43.803074
H     51.456681    34.372179    44.628058
H     52.222088    34.395077    43.017903
N     52.837173    35.984600    44.322933
H     52.448242    36.573257    45.083509
H     53.628225    35.463712    44.722496
H     53.177243    36.639085    43.551171
C     50.957000    37.559000    39.635000
H     51.614436    37.048443    40.364792
O     51.725984    37.964901    38.511075
H     52.669012    38.108838    38.771364
C     49.861707    36.641347    39.109474
H     49.293811    37.112817    38.299043
H     50.269302    35.703963    38.715383
H     49.149936    36.377698    39.898456
Mg    54.713946    38.325979    41.169610
O     56.199007    37.134732    42.306827
H     57.030931    37.249243    41.800576
H     56.336742    37.695428    43.093631
H     52.247000    40.514000    36.057000
H     59.245000    39.699000    45.553000
H     48.336000    33.234000    42.783000
H     50.547000    38.485000    40.081000
78
frame=103 E_kcal=-1520.1948
C     52.257128    36.579039    48.163873
C     53.719647    36.627883    47.687551
C     54.105132    37.894137    46.900178
C     52.909612    38.827251    46.635859
C     53.179586    39.822075    45.487000
C     51.229610    37.227713    47.213223
O     50.672182    36.160959    46.491438
O     52.145281    37.211445    49.417793
O     53.968422    35.565880    46.789399
O     54.981596    38.601177    47.752322
O     51.796769    38.063869    46.217086
O     53.653832    39.074739    44.372061
H     51.952130    35.522180    48.379139
H     54.398037    36.505273    48.571458
H     54.637328    37.608654    45.961247
H     52.643381    39.391103    47.562376
H     52.258444    40.417586    45.306294
H     54.000949    40.512228    45.782005
H     50.436893    37.806324    47.734212
H     49.993346    36.479764    45.844607
H     52.619289    38.079456    49.424829
H     53.821390    34.686724    47.213629
H     55.627033    39.131036    47.213855
H     55.303153    39.105393    44.387980
P     53.037999    39.290644    42.830345
O     51.717710    39.947160    42.908411
O     54.181605    40.035876    42.128718
O     53.095128    37.818331    42.359986
P     55.693846    38.479880    38.793637
O     56.501800    38.610349    40.101532
O     56.372620    37.841355    37.633822
O     54.324423    37.880978    39.201685
P     55.223257    41.347630    37.666898
O     55.082232    42.472966    38.657722
O     56.256801    41.489236    36.590242
O     55.392466    40.095905    38.664754
O     53.714795    41.272721    37.054753
C     53.341000    40.484000    35.919000
H     53.633285    40.962703    34.977266
H     53.668840    39.437250    35.926700
C     58.586000    39.405000    44.728000
H     58.789223    40.080796    43.874589
H     58.888569    38.391000    44.411124
C     57.166538    39.459640    45.152827
O     56.326112    39.011362    44.228001
O     56.765971    39.889582    46.222098
C     49.276000    33.777000    42.633000
H     50.080933    33.104381    42.949489
H     49.391214    33.948306    41.556017
C     49.278717    35.086815    43.418066
H     48.431252    35.722223    43.088142
H     49.084322    34.880620    44.488864
C     50.592307    35.856313    43.253022
H     50.764252    36.105838    42.184087
H     50.504825    36.838223    43.767902
C     51.773338    35.049509    43.803297
H     51.454749    34.376524    44.629691
H     52.220185    34.395322    43.019697
N     52.836255    35.987399    44.321156
H     52.448455    36.575924    45.082481
H     53.628259    35.466780    44.719149
H     53.174562    36.642241    43.548600
C     50.957000    37.559000    39.635000
H     51.616254    37.052137    40.366166
O     51.722275    37.959710    38.506860
H     52.666539    38.105149    38.764803
C     49.861870    36.637203    39.116019
H     49.288750    37.105530    38.307605
H     50.270921    35.700434    38.721912
H     49.154072    36.372109    39.908560
Mg    54.707676    38.324140    41.168428
O     56.185865    37.131665    42.311072
H     57.017734    37.242193    41.803913
H     56.326645    37.693827    43.095997
H     52.247000    40.514000    36.057000
H     59.245000    39.699000    45.553000
H     48.336000    33.234000    42.783000
H     50.547000    38.485000    40.081000
78
frame=104 E_kcal=-1520.2496
C     52.259988    36.578474    48.162655
C     53.722297    36.627174    47.685435
C     54.108386    37.893723    46.899093
C     52.912901    38.827387    46.636390
C     53.182836    39.823575    45.488772
C     51.232235    37.228577    47.213218
O     50.673361    36.162706    46.491200
O     52.149085    37.209305    49.417458
O     53.970888    35.565819    46.786539
O     54.985348    38.598788    47.752491
O     51.799533    38.064876    46.217224
O     53.653500    39.077234    44.371755
H     51.954258    35.521581    48.376930
H     54.400912    36.503445    48.569060
H     54.639805    37.609338    45.959271
H     52.647653    39.389979    47.563928
H     52.262998    40.421912    45.310949
H     54.006276    40.511687    45.783073
H     50.440374    37.807323    47.735223
H     49.994392    36.482493    45.844931
H     52.623219    38.077197    49.425639
H     53.822092    34.687076    47.210893
H     55.628281    39.132441    47.215078
H     55.303809    39.108641    44.389184
P     53.034052    39.295101    42.831989
O     51.716232    39.955588    42.912955
O     54.178152    40.036551    42.126667
O     53.085459    37.822843    42.359990
P     55.689621    38.474838    38.794553
O     56.494467    38.604341    40.104312
O     56.368661    37.833019    37.636610
O     54.318632    37.879875    39.201581
P     55.231540    41.340694    37.660961
O     55.097053    42.470804    38.648085
O     56.262931    41.477009    36.582912
O     55.389911    40.091167    38.663263
O     53.722111    41.274709    37.049290
C     53.341000    40.484000    35.919000
H     53.629183    40.959785    34.974303
H     53.668555    39.437101    35.927963
C     58.586000    39.405000    44.728000
H     58.788740    40.080255    43.874054
H     58.887267    38.390374    44.411897
C     57.166764    39.461319    45.152922
O     56.326093    39.013570    44.228095
O     56.766216    39.892005    46.222117
C     49.276000    33.777000    42.633000
H     50.080746    33.105171    42.951720
H     49.392372    33.946218    41.555787
C     49.277501    35.088422    43.415434
H     48.430499    35.723127    43.083082
H     49.081587    34.884419    44.486391
C     50.591220    35.857863    43.251120
H     50.764314    36.106816    42.182195
H     50.502862    36.840157    43.765097
C     51.771806    35.051704    43.803444
H     51.452643    34.381070    44.631564
H     52.218578    34.395841    43.021179
N     52.835067    35.990300    44.319170
H     52.448392    36.578775    45.080908
H     53.628208    35.470358    44.715941
H     53.171349    36.645142    43.545824
C     50.957000    37.559000    39.635000
H     51.618038    37.055865    40.367159
O     51.717727    37.957726    38.504031
H     52.662737    38.101924    38.758878
C     49.861986    36.633382    39.122034
H     49.283777    37.098691    38.315830
H     50.272142    35.697360    38.727797
H     49.158440    36.366963    39.918006
Mg    54.699052    38.323438    41.170988
O     56.173550    37.127753    42.316801
H     57.003952    37.233853    41.806290
H     56.318402    37.691651    43.099237
H     52.247000    40.514000    36.057000
H     59.245000    39.699000    45.553000
H     48.336000    33.234000    42.783000
H     50.547000    38.485000    40.081000
78
frame=105 E_kcal=-1520.3927
C     52.262995    36.577910    48.161058
C     53.725062    36.626322    47.683537
C     54.111392    37.893329    46.898234
C     52.916434    38.827991    46.637009
C     53.186584    39.825237    45.490357
C     51.235033    37.229613    47.213027
O     50.674502    36.164747    46.490857
O     52.153271    37.207036    49.416777
O     53.972677    35.565315    46.783991
O     54.988779    38.596956    47.752428
O     51.802708    38.066164    46.217388
O     53.653211    39.079828    44.371562
H     51.957170    35.520816    48.373901
H     54.404067    36.501909    48.566917
H     54.642685    37.610379    45.958061
H     52.652157    39.389077    47.565615
H     52.267027    40.424621    45.314550
H     54.012171    40.511448    45.783630
H     50.444027    37.808447    47.736062
H     49.995131    36.485657    45.845563
H     52.627605    38.074814    49.425771
H     53.822611    34.686530    47.207252
H     55.629794    39.133079    47.215044
H     55.303421    39.111625    44.389908
P     53.029733    39.300715    42.833696
O     51.713539    39.964509    42.917681
O     54.174166    40.039784    42.127301
O     53.075429    37.828333    42.362061
P     55.684336    38.470047    38.795683
O     56.487539    38.599605    40.106798
O     56.363339    37.824984    37.639571
O     54.312350    37.875996    39.200914
P     55.236325    41.336173    37.655457
O     55.110188    42.467489    38.642301
O     56.267317    41.460946    36.575433
O     55.391693    40.087021    38.659294
O     53.725161    41.279229    37.045828
C     53.341000    40.484000    35.919000
H     53.624552    40.957375    34.971753
H     53.670665    39.437972    35.929978
C     58.586000    39.405000    44.728000
H     58.788949    40.079200    43.873239
H     58.885904    38.389897    44.411903
C     57.166778    39.462902    45.153222
O     56.325648    39.015651    44.228562
O     56.766568    39.894351    46.222073
C     49.276000    33.777000    42.633000
H     50.080552    33.106050    42.953999
H     49.393581    33.943983    41.555590
C     49.276268    35.089966    43.412895
H     48.429817    35.723950    43.077951
H     49.078722    34.888133    44.484000
C     50.590050    35.859418    43.249207
H     50.764408    36.107531    42.180307
H     50.500947    36.842130    43.762163
C     51.770151    35.053971    43.803528
H     51.450524    34.385406    44.633148
H     52.216690    34.396182    43.022757
N     52.833716    35.993264    44.317144
H     52.447938    36.581898    45.079339
H     53.627748    35.473929    44.712840
H     53.168277    36.648196    43.542747
C     50.957000    37.559000    39.635000
H     51.622126    37.058526    40.365458
O     51.713300    37.958331    38.500684
H     52.659604    38.100962    38.752505
C     49.862218    36.629865    39.127962
H     49.278948    37.092376    38.323690
H     50.273156    35.694483    38.732802
H     49.163204    36.362676    39.927545
Mg    54.690684    38.321210    41.171386
O     56.161242    37.124717    42.323346
H     56.990245    37.223914    41.809044
H     56.312317    37.690396    43.103758
H     52.247000    40.514000    36.057000
H     59.245000    39.699000    45.553000
H     48.336000    33.234000    42.783000
H     50.547000    38.485000    40.081000
78
frame=106 E_kcal=-1520.4164
C     52.266138    36.577012    48.159638
C     53.728115    36.625129    47.681570
C     54.114630    37.892977    46.897531
C     52.919812    38.828523    46.638072
C     53.189251    39.827005    45.492616
C     51.238009    37.230790    47.213036
O     50.676261    36.167416    46.489850
O     52.157230    37.204775    49.416161
O     53.974086    35.564708    46.780695
O     54.992312    38.595997    47.751992
O     51.805529    38.068057    46.217961
O     53.652568    39.082598    44.371847
H     51.960010    35.519599    48.370777
H     54.407317    36.499911    48.564667
H     54.645845    37.610600    45.957134
H     52.656165    39.389186    47.567232
H     52.270456    40.428409    45.319146
H     54.016700    40.511242    45.784850
H     50.448076    37.810298    47.737074
H     49.995637    36.489288    45.846396
H     52.632319    38.072254    49.425428
H     53.823686    34.685287    47.202669
H     55.632696    39.133255    47.214914
H     55.302526    39.113924    44.388559
P     53.025593    39.306313    42.835714
O     51.711419    39.973474    42.923434
O     54.170980    40.041227    42.126101
O     53.065725    37.834318    42.362276
P     55.678586    38.465271    38.796249
O     56.479792    38.595954    40.108335
O     56.358652    37.816810    37.642020
O     54.306029    37.872979    39.201681
P     55.239029    41.330105    37.651378
O     55.122722    42.462960    38.636875
O     56.268659    41.445213    36.568188
O     55.395433    40.083414    38.657645
O     53.727673    41.282864    37.042425
C     53.341000    40.484000    35.919000
H     53.623373    40.956292    34.970210
H     53.672035    39.438123    35.931297
C     58.586000    39.405000    44.728000
H     58.790097    40.078207    43.872792
H     58.884972    38.389606    44.412079
C     57.166782    39.464495    45.153162
O     56.324894    39.017361    44.229048
O     56.767539    39.897251    46.222044
C     49.276000    33.777000    42.633000
H     50.080362    33.106923    42.956341
H     49.394888    33.941859    41.555392
C     49.274927    35.091544    43.410224
H     48.428834    35.724731    43.072704
H     49.075781    34.891679    44.481359
C     50.588801    35.861008    43.247214
H     50.764340    36.107934    42.178233
H     50.499165    36.844171    43.759283
C     51.768393    35.056252    43.803528
H     51.448431    34.389540    44.634523
H     52.214538    34.396231    43.024472
N     52.832299    35.996303    44.315051
H     52.447426    36.585114    45.077511
H     53.626998    35.477484    44.709975
H     53.165348    36.651649    43.540296
C     50.957000    37.559000    39.635000
H     51.627828    37.060504    40.361827
O     51.708306    37.959346    38.497244
H     52.655135    38.102488    38.745761
C     49.862493    36.626657    39.133838
H     49.274386    37.086776    38.331626
H     50.274063    35.691899    38.737467
H     49.168236    36.358753    39.936916
Mg    54.681559    38.320691    41.172416
O     56.149064    37.121104    42.330335
H     56.976066    37.213656    41.812152
H     56.306665    37.690490    43.106706
H     52.247000    40.514000    36.057000
H     59.245000    39.699000    45.553000
H     48.336000    33.234000    42.783000
H     50.547000    38.485000    40.081000
78
frame=107 E_kcal=-1520.4195
C     52.269164    36.576011    48.158023
C     53.730899    36.624233    47.679312
C     54.117687    37.892989    46.896896
C     52.923211    38.829390    46.638938
C     53.191842    39.829219    45.494360
C     51.240808    37.231826    47.213151
O     50.677989    36.170067    46.488533
O     52.161505    37.202335    49.415361
O     53.976294    35.565040    46.776669
O     54.996318    38.594438    47.751650
O     51.808330    38.069990    46.218817
O     53.652327    39.085832    44.371710
H     51.962356    35.518613    48.368221
H     54.410616    36.496586    48.561561
H     54.648315    37.610942    45.956072
H     52.660424    39.389023    47.569112
H     52.273637    40.432975    45.325056
H     54.020469    40.511971    45.787099
H     50.452131    37.811671    47.738796
H     49.995684    36.493407    45.847470
H     52.637075    38.069501    49.425408
H     53.825215    34.685222    47.197815
H     55.636059    39.132827    47.214962
H     55.302580    39.116497    44.387570
P     53.021918    39.310760    42.837088
O     51.710743    39.983177    42.929812
O     54.167330    40.043162    42.124831
O     53.055242    37.839198    42.362168
P     55.673783    38.458954    38.798274
O     56.472873    38.591516    40.111588
O     56.353248    37.808182    37.645144
O     54.298459    37.872188    39.201444
P     55.243717    41.323841    37.648606
O     55.134395    42.460768    38.631649
O     56.268367    41.432341    36.560546
O     55.396527    40.078312    38.656956
O     53.731045    41.282558    37.041871
C     53.341000    40.484000    35.919000
H     53.624588    40.954912    34.970393
H     53.670331    39.437929    35.931186
C     58.586000    39.405000    44.728000
H     58.791305    40.077777    43.872752
H     58.884244    38.389086    44.413066
C     57.166899    39.466345    45.152668
O     56.324636    39.019194    44.228571
O     56.767906    39.900037    46.221080
C     49.276000    33.777000    42.633000
H     50.080108    33.107813    42.958740
H     49.396249    33.939736    41.555225
C     49.273495    35.093086    43.407567
H     48.427755    35.725452    43.067390
H     49.072695    34.895349    44.478779
C     50.587502    35.862458    43.245060
H     50.764054    36.108445    42.176014
H     50.497314    36.846018    43.756089
C     51.766687    35.058546    43.803453
H     51.446261    34.394009    44.635995
H     52.212576    34.396442    43.025979
N     52.830784    35.999359    44.313207
H     52.446575    36.588300    45.076022
H     53.626294    35.481139    44.707214
H     53.162304    36.654717    43.537768
C     50.957000    37.559000    39.635000
H     51.632667    37.062869    40.358879
O     51.702192    37.960688    38.493580
H     52.649395    38.105289    38.739083
C     49.862550    36.623516    39.139788
H     49.269813    37.081824    38.339880
H     50.274864    35.689569    38.742109
H     49.172671    36.354462    39.946074
Mg    54.674290    38.320589    41.172637
O     56.136544    37.118237    42.335823
H     56.962194    37.202462    41.814401
H     56.299431    37.691536    43.107994
H     52.247000    40.514000    36.057000
H     59.245000    39.699000    45.553000
H     48.336000    33.234000    42.783000
H     50.547000    38.485000    40.081000
78
frame=108 E_kcal=-1520.4305
C     52.269793    36.575839    48.157735
C     53.731476    36.624019    47.678747
C     54.118276    37.893011    46.896717
C     52.923847    38.829556    46.639179
C     53.192377    39.829755    45.494868
C     51.241411    37.232091    47.213164
O     50.678220    36.170590    46.488243
O     52.162380    37.201809    49.415289
O     53.976745    35.565187    46.775848
O     54.997190    38.594001    47.751618
O     51.808851    38.070347    46.218905
O     53.652482    39.086577    44.371696
H     51.962807    35.518451    48.367742
H     54.411284    36.495878    48.560920
H     54.648725    37.611144    45.955781
H     52.661362    39.388947    47.569486
H     52.274358    40.433780    45.326124
H     54.021236    40.512164    45.787448
H     50.452877    37.811791    47.739190
H     49.995642    36.494275    45.847732
H     52.638044    38.068947    49.425440
H     53.825587    34.685339    47.196751
H     55.636702    39.132690    47.214965
H     55.302589    39.117145    44.387540
P     53.021252    39.311693    42.837555
O     51.710584    39.985236    42.931016
O     54.166521    40.043458    42.124584
O     53.053248    37.840267    42.362204
P     55.673004    38.457939    38.798573
O     56.471618    38.590239    40.112207
O     56.352087    37.806373    37.646175
O     54.297112    37.872149    39.201521
P     55.244463    41.322670    37.648149
O     55.136771    42.460204    38.630300
O     56.268601    41.430101    36.559289
O     55.396362    40.077437    38.656692
O     53.731452    41.281816    37.042076
C     53.341000    40.484000    35.919000
H     53.624959    40.954706    34.970458
H     53.669688    39.437743    35.931029
C     58.586000    39.405000    44.728000
H     58.791515    40.077689    43.872770
H     58.884092    38.388949    44.413316
C     57.166931    39.466626    45.152481
O     56.324649    39.019568    44.228249
O     56.767751    39.900590    46.220889
C     49.276000    33.777000    42.633000
H     50.080062    33.107985    42.959227
H     49.396525    33.939299    41.555184
C     49.273205    35.093398    43.407029
H     48.427575    35.725577    43.066343
H     49.072063    34.896115    44.478283
C     50.587243    35.862729    43.244608
H     50.763984    36.108555    42.175565
H     50.496926    36.846402    43.755420
C     51.766335    35.058980    43.803441
H     51.445801    34.394923    44.636303
H     52.212222    34.396562    43.026287
N     52.830460    35.999981    44.312836
H     52.446387    36.588892    45.075747
H     53.626143    35.481888    44.706680
H     53.161662    36.655281    43.537230
C     50.957000    37.559000    39.635000
H     51.633467    37.063430    40.358468
O     51.700650    37.960970    38.492895
H     52.648200    38.105907    38.737633
C     49.862674    36.622916    39.140882
H     49.268850    37.080846    38.341616
H     50.274964    35.689142    38.743051
H     49.173419    36.353550    39.947915
Mg    54.672779    38.320564    41.172635
O     56.133868    37.117888    42.336688
H     56.959565    37.200072    41.814760
H     56.297841    37.691767    43.108082
H     52.247000    40.514000    36.057000
H     59.245000    39.699000    45.553000
H     48.336000    33.234000    42.783000
H     50.547000    38.485000    40.081000
78
frame=109 E_kcal=-1520.4305
C     52.269793    36.575839    48.157735
C     53.731476    36.624019    47.678747
C     54.118276    37.893011    46.896717
C     52.923847    38.829556    46.639179
C     53.192377    39.829755    45.494868
C     51.241411    37.232091    47.213164
O     50.678220    36.170590    46.488243
O     52.162380    37.201809    49.415289
O     53.976745    35.565187    46.775848
O     54.997190    38.594001    47.751618
O     51.808851    38.070347    46.218905
O     53.652482    39.086577    44.371696
H     51.962807    35.518451    48.367742
H     54.411284    36.495878    48.560920
H     54.648725    37.611144    45.955781
H     52.661362    39.388947    47.569486
H     52.274358    40.433780    45.326124
H     54.021236    40.512164    45.787448
H     50.452877    37.811791    47.739190
H     49.995642    36.494275    45.847732
H     52.638044    38.068947    49.425440
H     53.825587    34.685339    47.196751
H     55.636702    39.132690    47.214965
H     55.302589    39.117145    44.387540
P     53.021252    39.311693    42.837555
O     51.710584    39.985236    42.931016
O     54.166521    40.043458    42.124584
O     53.053248    37.840267    42.362204
P     55.673004    38.457939    38.798573
O     56.471618    38.590239    40.112207
O     56.352087    37.806373    37.646175
O     54.297112    37.872149    39.201521
P     55.244463    41.322670    37.648149
O     55.136771    42.460204    38.630300
O     56.268601    41.430101    36.559289
O     55.396362    40.077437    38.656692
O     53.731452    41.281816    37.042076
C     53.341000    40.484000    35.919000
H     53.624959    40.954706    34.970458
H     53.669688    39.437743    35.931029
C     58.586000    39.405000    44.728000
H     58.791515    40.077689    43.872770
H     58.884092    38.388949    44.413316
C     57.166931    39.466626    45.152481
O     56.324649    39.019568    44.228249
O     56.767751    39.900590    46.220889
C     49.276000    33.777000    42.633000
H     50.080062    33.107985    42.959227
H     49.396525    33.939299    41.555184
C     49.273205    35.093398    43.407029
H     48.427575    35.725577    43.066343
H     49.072063    34.896115    44.478283
C     50.587243    35.862729    43.244608
H     50.763984    36.108555    42.175565
H     50.496926    36.846402    43.755420
C     51.766335    35.058980    43.803441
H     51.445801    34.394923    44.636303
H     52.212222    34.396562    43.026287
N     52.830460    35.999981    44.312836
H     52.446387    36.588892    45.075747
H     53.626143    35.481888    44.706680
H     53.161662    36.655281    43.537230
C     50.957000    37.559000    39.635000
H     51.633467    37.063430    40.358468
O     51.700650    37.960970    38.492895
H     52.648200    38.105907    38.737633
C     49.862674    36.622916    39.140882
H     49.268850    37.080846    38.341616
H     50.274964    35.689142    38.743051
H     49.173419    36.353550    39.947915
Mg    54.672779    38.320564    41.172635
O     56.133868    37.117888    42.336688
H     56.959565    37.200072    41.814760
H     56.297841    37.691767    43.108082
H     52.247000    40.514000    36.057000
H     59.245000    39.699000    45.553000
H     48.336000    33.234000    42.783000
H     50.547000    38.485000    40.081000
