78
frame=0 E_kcal=-1647.1840
C     52.045085    36.098147    48.303917
C     53.127763    37.063023    48.859253
C     53.786310    37.790658    47.669997
C     52.693651    38.510419    46.839129
C     53.305429    39.154515    45.589621
C     51.052241    36.889159    47.428858
O     50.208088    36.022934    46.749883
O     51.301171    35.507520    49.329582
O     54.100236    36.282448    49.492405
O     54.664323    38.763928    48.164363
O     51.769645    37.547016    46.373613
O     54.203876    38.209184    45.094144
H     52.500665    35.257127    47.741882
H     52.706344    37.782974    49.591479
H     54.356696    37.075227    47.039511
H     52.133140    39.264007    47.401922
H     52.546997    39.359940    44.810888
H     53.821671    40.093376    45.856516
H     50.459672    37.644157    47.985403
H     49.417877    36.644248    46.385219
H     51.560016    35.868119    50.257215
H     53.951350    36.292657    50.538005
H     55.403197    38.958248    47.488961
H     55.069502    38.649550    44.797403
P     53.760815    38.250741    41.899667
O     52.780605    37.174628    41.574966
O     53.204092    39.568680    42.296157
O     54.875878    37.632081    42.798384
P     55.927654    38.780757    39.569295
O     57.217448    39.019861    40.355195
O     55.923678    37.720602    38.521983
O     54.987771    38.637050    40.836949
P     55.410007    40.981428    37.519236
O     55.827913    42.342859    37.989126
O     56.045940    40.309855    36.335023
O     55.368832    40.196160    38.943459
O     53.843468    41.245161    37.116160
C     53.300000    40.708000    35.894000
H     53.428471    41.405199    35.071807
H     53.688050    39.732721    35.568750
C     58.778000    39.640000    45.275000
H     58.931120    40.480753    44.588192
H     59.229145    38.739493    44.811828
C     57.278450    39.390667    45.435923
O     56.521964    39.398583    44.416563
O     56.783151    39.245233    46.566841
C     49.367000    33.471000    42.644000
H     50.222299    32.844538    42.938008
H     49.499443    33.698583    41.578146
C     49.346180    34.773290    43.445959
H     48.506045    35.409329    43.103259
H     49.151599    34.590326    44.519961
C     50.663532    35.540028    43.291598
H     50.844071    35.809479    42.230612
H     50.550203    36.502387    43.823114
C     51.875914    34.797266    43.857571
H     51.579913    34.110561    44.684133
H     52.375915    34.194880    43.060593
N     52.866129    35.802794    44.398802
H     52.406241    36.479743    45.044212
H     53.611742    35.330458    44.958062
H     53.316358    36.354234    43.643701
C     50.919000    37.490000    39.432000
H     51.626619    37.062113    40.178371
O     51.633482    37.720799    38.215944
H     52.582417    37.926522    38.397486
C     49.838856    36.472152    39.065567
H     49.081189    36.914235    38.413295
H     50.291363    35.633093    38.523308
H     49.359163    36.076357    39.966412
Mg    56.502703    38.795284    42.482594
O     58.448913    38.381017    42.647129
H     58.966926    37.601439    42.274979
H     58.961439    39.197074    42.301673
H     52.276686    40.595866    36.252266
H     59.281679    39.844994    46.219662
H     48.460643    32.881339    42.781541
H     50.510479    38.453600    39.736444
78
frame=1 E_kcal=-1647.1840
C     52.045085    36.098147    48.303917
C     53.127763    37.063023    48.859253
C     53.786310    37.790658    47.669997
C     52.693651    38.510419    46.839129
C     53.305429    39.154515    45.589621
C     51.052241    36.889159    47.428858
O     50.208088    36.022934    46.749883
O     51.301171    35.507520    49.329582
O     54.100236    36.282448    49.492405
O     54.664323    38.763928    48.164363
O     51.769645    37.547016    46.373613
O     54.203876    38.209184    45.094144
H     52.500665    35.257127    47.741882
H     52.706344    37.782974    49.591479
H     54.356696    37.075227    47.039511
H     52.133140    39.264007    47.401922
H     52.546997    39.359940    44.810888
H     53.821671    40.093376    45.856516
H     50.459672    37.644157    47.985403
H     49.417877    36.644248    46.385219
H     51.560016    35.868119    50.257215
H     53.951350    36.292657    50.538005
H     55.403197    38.958248    47.488961
H     55.069502    38.649550    44.797403
P     53.760815    38.250741    41.899667
O     52.780605    37.174628    41.574966
O     53.204092    39.568680    42.296157
O     54.875878    37.632081    42.798384
P     55.927654    38.780757    39.569295
O     57.217448    39.019861    40.355195
O     55.923678    37.720602    38.521983
O     54.987771    38.637050    40.836949
P     55.410007    40.981428    37.519236
O     55.827913    42.342859    37.989126
O     56.045940    40.309855    36.335023
O     55.368832    40.196160    38.943459
O     53.843468    41.245161    37.116160
C     53.300000    40.708000    35.894000
H     53.428471    41.405199    35.071807
H     53.688050    39.732721    35.568750
C     58.778000    39.640000    45.275000
H     58.931120    40.480753    44.588192
H     59.229145    38.739493    44.811828
C     57.278450    39.390667    45.435923
O     56.521964    39.398583    44.416563
O     56.783151    39.245233    46.566841
C     49.367000    33.471000    42.644000
H     50.222299    32.844538    42.938008
H     49.499443    33.698583    41.578146
C     49.346180    34.773290    43.445959
H     48.506045    35.409329    43.103259
H     49.151599    34.590326    44.519961
C     50.663532    35.540028    43.291598
H     50.844071    35.809479    42.230612
H     50.550203    36.502387    43.823114
C     51.875914    34.797266    43.857571
H     51.579913    34.110561    44.684133
H     52.375915    34.194880    43.060593
N     52.866129    35.802794    44.398802
H     52.406241    36.479743    45.044212
H     53.611742    35.330458    44.958062
H     53.316358    36.354234    43.643701
C     50.919000    37.490000    39.432000
H     51.626619    37.062113    40.178371
O     51.633482    37.720799    38.215944
H     52.582417    37.926522    38.397486
C     49.838856    36.472152    39.065567
H     49.081189    36.914235    38.413295
H     50.291363    35.633093    38.523308
H     49.359163    36.076357    39.966412
Mg    56.502703    38.795284    42.482594
O     58.448913    38.381017    42.647129
H     58.966926    37.601439    42.274979
H     58.961439    39.197074    42.301673
H     52.276686    40.595866    36.252266
H     59.281679    39.844994    46.219662
H     48.460643    32.881339    42.781541
H     50.510479    38.453600    39.736444
78
frame=2 E_kcal=-1647.1580
C     52.045260    36.099263    48.302381
C     53.128036    37.063944    48.857667
C     53.788219    37.791589    47.669343
C     52.695781    38.511136    46.838181
C     53.309361    39.158991    45.591666
C     51.053951    36.889831    47.424924
O     50.210311    36.023229    46.745439
O     51.299887    35.510690    49.328292
O     54.100116    36.284084    49.492154
O     54.665283    38.764687    48.165704
O     51.773852    37.546516    46.370458
O     54.203540    38.212371    45.090802
H     52.500403    35.256930    47.742050
H     52.706022    37.784532    49.588750
H     54.359497    37.076917    47.038828
H     52.132838    39.262595    47.401571
H     52.551199    39.372771    44.814961
H     53.830601    40.093807    45.863789
H     50.460334    37.645310    47.979885
H     49.419354    36.644049    46.382052
H     51.559432    35.870725    50.255953
H     53.951463    36.294810    50.537609
H     55.404650    38.959406    47.490856
H     55.069819    38.651352    44.794121
P     53.760910    38.250663    41.904205
O     52.782946    37.170912    41.584209
O     53.203524    39.569245    42.297209
O     54.880809    37.636897    42.800637
P     55.923352    38.779511    39.569305
O     57.212092    39.022565    40.356924
O     55.923305    37.721174    38.520145
O     54.985549    38.628671    40.836879
P     55.410082    40.981004    37.519130
O     55.828486    42.342028    37.989966
O     56.045360    40.309656    36.334477
O     55.368440    40.195985    38.943241
O     53.843119    41.243998    37.117123
C     53.300000    40.708000    35.894000
H     53.428418    41.405675    35.072152
H     53.687403    39.732845    35.567467
C     58.778000    39.640000    45.275000
H     58.932653    40.480562    44.588371
H     59.228920    38.739102    44.812296
C     57.278104    39.391550    45.435917
O     56.522995    39.400171    44.415177
O     56.782429    39.246690    46.565805
C     49.367000    33.471000    42.644000
H     50.221459    32.846025    42.943589
H     49.503417    33.694711    41.577873
C     49.342098    34.776167    43.441051
H     48.504809    35.411834    43.090643
H     49.140346    34.596885    44.514406
C     50.660769    35.541562    43.292927
H     50.842345    35.817665    42.233828
H     50.548484    36.500386    43.831309
C     51.872219    34.793815    43.854325
H     51.576560    34.106064    44.680025
H     52.368693    34.192079    43.054408
N     52.866180    35.796363    44.394358
H     52.409486    36.475139    45.040127
H     53.611366    35.321981    44.952475
H     53.315600    36.346694    43.637884
C     50.919000    37.490000    39.432000
H     51.626514    37.063043    40.179222
O     51.633753    37.720754    38.216154
H     52.582666    37.926889    38.397721
C     49.839121    36.471754    39.066082
H     49.081449    36.912922    38.413134
H     50.291747    35.632032    38.524911
H     49.359030    36.076916    39.967196
Mg    56.505347    38.801212    42.480743
O     58.450311    38.382347    42.647446
H     58.964257    37.601396    42.272910
H     58.964798    39.197613    42.301516
H     52.276686    40.595866    36.252266
H     59.281679    39.844994    46.219662
H     48.460643    32.881339    42.781541
H     50.510479    38.453600    39.736444
78
frame=3 E_kcal=-1647.0790
C     52.046289    36.102028    48.299038
C     53.129039    37.066001    48.855877
C     53.791566    37.793315    47.668567
C     52.699432    38.512219    46.836403
C     53.315198    39.167999    45.595554
C     51.057720    36.891232    47.416884
O     50.214802    36.024262    46.736824
O     51.297243    35.516646    49.324286
O     54.098828    36.285297    49.492747
O     54.666874    38.766728    48.167945
O     51.782049    37.545359    46.363681
O     54.200822    38.219856    45.082137
H     52.502872    35.258376    47.741858
H     52.706768    37.787879    49.585764
H     54.364675    37.080315    47.038169
H     52.132272    39.259670    47.401308
H     52.556221    39.398449    44.824341
H     53.846894    40.094560    45.876643
H     50.462559    37.648114    47.968593
H     49.422485    36.644187    46.375092
H     51.558603    35.874896    50.251819
H     53.950436    36.300072    50.538444
H     55.407979    38.963027    47.496493
H     55.068758    38.657715    44.788211
P     53.759924    38.250333    41.913018
O     52.783289    37.164566    41.607158
O     53.198452    39.567742    42.303129
O     54.890522    37.643457    42.801425
P     55.917570    38.778882    39.571083
O     57.207276    39.023466    40.358771
O     55.921632    37.722104    38.519876
O     54.983533    38.616637    40.839787
P     55.410171    40.980317    37.517853
O     55.827279    42.341715    37.988635
O     56.045869    40.312244    36.331633
O     55.368636    40.197389    38.943190
O     53.843382    41.243311    37.116391
C     53.300000    40.708000    35.894000
H     53.427868    41.405563    35.072002
H     53.687285    39.732702    35.567780
C     58.778000    39.640000    45.275000
H     58.935209    40.480359    44.588558
H     59.227318    38.737784    44.812721
C     57.277916    39.394161    45.433823
O     56.523953    39.404670    44.412886
O     56.780902    39.249306    46.563912
C     49.367000    33.471000    42.644000
H     50.219940    32.848658    42.953150
H     49.510162    33.687500    41.577438
C     49.336098    34.781563    43.432417
H     48.504169    35.416706    43.068472
H     49.122568    34.608838    44.504726
C     50.657005    35.544909    43.294391
H     50.840249    35.831527    42.238361
H     50.547233    36.498123    43.843923
C     51.866189    34.788277    43.848444
H     51.569801    34.098005    44.671478
H     52.357017    34.188253    43.043703
N     52.867167    35.783737    44.388138
H     52.417076    36.464491    45.036638
H     53.611257    35.303685    44.942972
H     53.314600    36.333130    43.629358
C     50.919000    37.490000    39.432000
H     51.626032    37.064404    40.180912
O     51.634831    37.720834    38.217001
H     52.583260    37.929046    38.399293
C     49.839875    36.471016    39.067032
H     49.082256    36.910452    38.412881
H     50.292818    35.630319    38.527724
H     49.359512    36.077796    39.968854
Mg    56.510092    38.809756    42.478130
O     58.450926    38.385181    42.648832
H     58.957151    37.603453    42.267295
H     58.967373    39.198426    42.298725
H     52.276686    40.595866    36.252266
H     59.281679    39.844994    46.219662
H     48.460643    32.881339    42.781541
H     50.510479    38.453600    39.736444
78
frame=4 E_kcal=-1646.9783
C     52.048690    36.105744    48.294656
C     53.130408    37.068906    48.854852
C     53.795463    37.796558    47.669111
C     52.703766    38.515179    46.835972
C     53.321210    39.179563    45.601227
C     51.063832    36.893708    47.407315
O     50.222611    36.026177    46.725706
O     51.294184    35.523053    49.317792
O     54.097443    36.286297    49.493891
O     54.669269    38.770224    48.170115
O     51.792474    37.545941    46.356205
O     54.198548    38.229727    45.076172
H     52.507962    35.261621    47.740520
H     52.707588    37.790250    49.584653
H     54.369337    37.083985    47.039049
H     52.131313    39.257204    47.402812
H     52.562319    39.425315    44.834521
H     53.860946    40.098403    45.892722
H     50.467702    37.652229    47.955834
H     49.427774    36.644593    46.368270
H     51.557814    35.875845    50.246087
H     53.947447    36.302057    50.539783
H     55.410755    38.967709    47.498650
H     55.067291    38.665454    44.783117
P     53.757186    38.246528    41.920042
O     52.776148    37.160165    41.628654
O     53.193233    39.563701    42.307166
O     54.893539    37.640066    42.800349
P     55.916318    38.778866    39.573547
O     57.210381    39.019794    40.355193
O     55.920254    37.721885    38.522280
O     54.980182    38.622744    40.843040
P     55.410657    40.982302    37.518493
O     55.827356    42.344544    37.987436
O     56.046451    40.312773    36.333070
O     55.369080    40.197953    38.943208
O     53.843882    41.245789    37.115405
C     53.300000    40.708000    35.894000
H     53.427694    41.403829    35.070681
H     53.688012    39.732214    35.570270
C     58.778000    39.640000    45.275000
H     58.936743    40.478785    44.587515
H     59.225104    38.736826    44.813523
C     57.277178    39.397997    45.433734
O     56.523563    39.413726    44.412447
O     56.780437    39.252045    46.563699
C     49.367000    33.471000    42.644000
H     50.218584    32.851260    42.962180
H     49.516429    33.680125    41.576858
C     49.330923    34.786954    43.423228
H     48.503863    35.421106    43.046877
H     49.107204    34.620902    44.494586
C     50.653971    35.548138    43.294371
H     50.838730    35.845700    42.241742
H     50.547000    36.496037    43.853960
C     51.859992    34.782283    43.842028
H     51.560993    34.090911    44.663215
H     52.345296    34.183513    43.032972
N     52.868665    35.768882    44.383215
H     52.426020    36.448957    45.037656
H     53.612572    35.280746    44.930855
H     53.314564    36.320364    43.624989
C     50.919000    37.490000    39.432000
H     51.626249    37.067119    40.182482
O     51.635447    37.720844    38.217444
H     52.583109    37.931876    38.400381
C     49.841281    36.469848    39.067899
H     49.083878    36.908158    38.412686
H     50.295253    35.628427    38.530484
H     49.360600    36.077807    39.970141
Mg    56.508867    38.815157    42.475189
O     58.448642    38.386759    42.646836
H     58.954439    37.605552    42.263857
H     58.964939    39.201077    42.297956
H     52.276686    40.595866    36.252266
H     59.281679    39.844994    46.219662
H     48.460643    32.881339    42.781541
H     50.510479    38.453600    39.736444
78
frame=5 E_kcal=-1646.8681
C     52.051697    36.109055    48.289926
C     53.131687    37.071788    48.854714
C     53.798830    37.801082    47.671272
C     52.708577    38.520652    46.837338
C     53.330175    39.193833    45.609818
C     51.070947    36.897049    47.397843
O     50.232319    36.029149    46.713181
O     51.292173    35.527223    49.310263
O     54.097938    36.287990    49.493647
O     54.672701    38.774575    48.172180
O     51.804447    37.548380    46.349682
O     54.201819    38.242418    45.078009
H     52.512948    35.264268    47.738551
H     52.706440    37.791554    49.584774
H     54.373349    37.088839    47.041158
H     52.129760    39.256803    47.405114
H     52.574005    39.449788    44.844068
H     53.873556    40.107969    45.910709
H     50.472992    37.656225    47.943586
H     49.434454    36.645254    46.360313
H     51.557421    35.874003    50.239364
H     53.945563    36.299227    50.539174
H     55.411415    38.972840    47.497879
H     55.069646    38.675779    44.781596
P     53.758112    38.242898    41.918223
O     52.773451    37.161220    41.623648
O     53.202315    39.564338    42.303486
O     54.891466    37.630825    42.797569
P     55.912884    38.778324    39.574710
O     57.204259    39.016827    40.360184
O     55.915698    37.719956    38.525504
O     54.971362    38.639424    40.840392
P     55.408738    40.981681    37.521851
O     55.828026    42.342961    37.991578
O     56.046309    40.309282    36.338756
O     55.366664    40.199168    38.947422
O     53.844063    41.251196    37.113394
C     53.300000    40.708000    35.894000
H     53.428629    41.401443    35.068478
H     53.688702    39.731226    35.573374
C     58.778000    39.640000    45.275000
H     58.939106    40.477018    44.585381
H     59.223693    38.734657    44.815606
C     57.278235    39.401663    45.432612
O     56.526029    39.423212    44.410513
O     56.781432    39.255300    46.562266
C     49.367000    33.471000    42.644000
H     50.217041    32.853505    42.970242
H     49.522010    33.673519    41.576426
C     49.325691    34.792122    43.414420
H     48.502400    35.424638    43.027080
H     49.092622    34.631977    44.484845
C     50.650878    35.551188    43.293291
H     50.837733    35.857524    42.243391
H     50.546536    36.493939    43.862504
C     51.853151    34.775585    43.835240
H     51.550281    34.084059    44.655099
H     52.331826    34.175294    43.023385
N     52.870088    35.752396    44.378413
H     52.434575    36.428014    45.042286
H     53.614881    35.254145    44.916153
H     53.313350    36.310447    43.623053
C     50.919000    37.490000    39.432000
H     51.627887    37.069103    40.182275
O     51.634454    37.720937    38.216729
H     52.581368    37.935284    38.399262
C     49.842943    36.467955    39.068771
H     49.085742    36.904242    38.412019
H     50.298913    35.626583    38.532836
H     49.361656    36.075986    39.970684
Mg    56.500825    38.814089    42.479832
O     58.444130    38.387405    42.641826
H     58.957490    37.608647    42.265289
H     58.960099    39.203951    42.300304
H     52.276686    40.595866    36.252266
H     59.281679    39.844994    46.219662
H     48.460643    32.881339    42.781541
H     50.510479    38.453600    39.736444
78
frame=6 E_kcal=-1646.7139
C     52.054302    36.111181    48.285486
C     53.132786    37.073594    48.854497
C     53.800694    37.806184    47.673817
C     52.711622    38.526939    46.838937
C     53.340300    39.206666    45.618829
C     51.076313    36.899470    47.390312
O     50.240588    36.032152    46.700894
O     51.292684    35.528619    49.304223
O     54.098667    36.287775    49.491445
O     54.675178    38.778211    48.176134
O     51.813094    37.552239    46.345048
O     54.212511    38.255405    45.088357
H     52.517150    35.266555    47.735155
H     52.705663    37.789688    49.587021
H     54.375391    37.094378    47.042852
H     52.127803    39.259775    47.405562
H     52.590753    39.470221    44.849577
H     53.885745    40.117232    45.928175
H     50.475393    37.657182    47.934793
H     49.441469    36.647701    46.350270
H     51.557635    35.872829    50.233859
H     53.947725    36.297074    50.536566
H     55.412834    38.978808    47.500365
H     55.077369    38.691385    44.787069
P     53.757209    38.242460    41.913337
O     52.774919    37.169531    41.584959
O     53.217498    39.569157    42.304539
O     54.875801    37.616775    42.800363
P     55.912746    38.778452    39.574049
O     57.197229    39.020875    40.368720
O     55.919714    37.721808    38.523584
O     54.964602    38.646599    40.834264
P     55.407525    40.983032    37.524108
O     55.828171    42.342566    37.997782
O     56.045108    40.306293    36.343552
O     55.361677    40.197031    38.947308
O     53.845015    41.257934    37.110425
C     53.300000    40.708000    35.894000
H     53.428621    41.398928    35.066068
H     53.689095    39.730132    35.576939
C     58.778000    39.640000    45.275000
H     58.944459    40.475138    44.584070
H     59.223713    38.732677    44.818690
C     57.278554    39.405762    45.431153
O     56.531290    39.433814    44.406115
O     56.778721    39.257823    46.559114
C     49.367000    33.471000    42.644000
H     50.215586    32.855208    42.976854
H     49.526560    33.668477    41.576173
C     49.320305    34.795793    43.407667
H     48.500647    35.427071    43.010967
H     49.078737    34.641053    44.477106
C     50.647241    35.552454    43.292362
H     50.836054    35.864331    42.244447
H     50.545889    36.491624    43.868014
C     51.845675    34.768213    43.829493
H     51.538994    34.076584    44.648085
H     52.317954    34.165851    43.015406
N     52.869937    35.736754    44.373523
H     52.441979    36.405824    45.049232
H     53.617859    35.229666    44.898417
H     53.309849    36.301662    43.621343
C     50.919000    37.490000    39.432000
H     51.630430    37.066360    40.177698
O     51.631551    37.722172    38.214890
H     52.577979    37.939078    38.396386
C     49.844560    36.465373    39.069212
H     49.086969    36.898079    38.410778
H     50.303648    35.624573    38.534729
H     49.363658    36.073030    39.971030
Mg    56.490804    38.799319    42.483858
O     58.441694    38.387879    42.645387
H     58.958050    37.611540    42.268359
H     58.951537    39.206337    42.299469
H     52.276686    40.595866    36.252266
H     59.281679    39.844994    46.219662
H     48.460643    32.881339    42.781541
H     50.510479    38.453600    39.736444
78
frame=7 E_kcal=-1646.4731
C     52.056263    36.112888    48.281622
C     53.133797    37.074094    48.854525
C     53.800544    37.810879    47.676523
C     52.712475    38.532337    46.840344
C     53.349341    39.215497    45.626354
C     51.078986    36.901104    47.385286
O     50.246676    36.034841    46.689882
O     51.294547    35.529577    49.300040
O     54.100628    36.286757    49.488969
O     54.675888    38.781262    48.181392
O     51.816948    37.557042    46.342600
O     54.225422    38.265894    45.099248
H     52.520251    35.269491    47.730515
H     52.706693    37.786340    49.590764
H     54.375405    37.100853    47.043127
H     52.124456    39.264039    47.404101
H     52.608672    39.483092    44.850096
H     53.893678    40.123400    45.946860
H     50.474129    37.654427    47.931613
H     49.447222    36.651587    46.340915
H     51.559176    35.874431    50.229479
H     53.951775    36.295598    50.533965
H     55.413437    38.981619    47.507829
H     55.087108    38.705568    44.796153
P     53.752184    38.244532    41.902528
O     52.764261    37.187525    41.542180
O     53.213796    39.564039    42.318425
O     54.854737    37.600345    42.797733
P     55.922236    38.785311    39.572523
O     57.206854    39.027524    40.364346
O     55.927858    37.725559    38.524585
O     54.979736    38.635816    40.838642
P     55.407347    40.984790    37.522284
O     55.827882    42.343362    37.997075
O     56.047179    40.314309    36.339842
O     55.353706    40.196528    38.944830
O     53.847164    41.263983    37.105705
C     53.300000    40.708000    35.894000
H     53.425799    41.395681    35.063207
H     53.690410    39.729656    35.581036
C     58.778000    39.640000    45.275000
H     58.948929    40.473014    44.582768
H     59.222157    38.731413    44.820359
C     57.278397    39.410066    45.427398
O     56.536446    39.444631    44.397964
O     56.774370    39.260484    46.553503
C     49.367000    33.471000    42.644000
H     50.214569    32.856541    42.981547
H     49.529871    33.665303    41.576055
C     49.315278    34.798145    43.403059
H     48.497963    35.428388    42.999558
H     49.066978    34.646897    44.471428
C     50.643905    35.552251    43.291878
H     50.833280    35.866872    42.244651
H     50.545053    36.489788    43.870472
C     51.839531    34.761390    43.825899
H     51.530833    34.069804    44.644188
H     52.307076    34.158591    43.009325
N     52.869970    35.723379    44.369939
H     52.447713    36.387670    45.054050
H     53.622463    35.209470    44.883024
H     53.304353    36.295128    43.620644
C     50.919000    37.490000    39.432000
H     51.633708    37.060227    40.170646
O     51.629132    37.725065    38.213191
H     52.575514    37.943187    38.393055
C     49.846331    36.462865    39.069340
H     49.087994    36.892209    38.409974
H     50.308548    35.622518    38.536571
H     49.366694    36.070353    39.971716
Mg    56.481898    38.776253    42.489284
O     58.435057    38.388319    42.651720
H     58.951695    37.613696    42.274104
H     58.937736    39.207901    42.298725
H     52.276686    40.595866    36.252266
H     59.281679    39.844994    46.219662
H     48.460643    32.881339    42.781541
H     50.510479    38.453600    39.736444
78
frame=8 E_kcal=-1646.1889
C     52.057489    36.113843    48.279573
C     53.134628    37.074361    48.854480
C     53.800281    37.813566    47.677930
C     52.712340    38.535110    46.841443
C     53.354123    39.219247    45.630701
C     51.079811    36.901926    47.383453
O     50.249350    36.036385    46.684734
O     51.295752    35.530542    49.298004
O     54.101583    36.285718    49.487674
O     54.676633    38.782788    48.183331
O     51.818108    37.559735    46.342103
O     54.232171    38.270510    45.104584
H     52.521405    35.270893    47.727742
H     52.707869    37.784225    49.593270
H     54.375187    37.104830    47.042906
H     52.121646    39.266526    47.402973
H     52.619190    39.486635    44.849478
H     53.895536    40.126756    45.958005
H     50.472214    37.651748    47.931636
H     49.449564    36.653825    46.336355
H     51.560348    35.876092    50.227100
H     53.953934    36.295624    50.532635
H     55.414523    38.981918    47.510213
H     55.092098    38.711465    44.800203
P     53.748164    38.249310    41.895356
O     52.756167    37.200598    41.523701
O     53.199862    39.558968    42.327698
O     54.845107    37.586145    42.785943
P     55.931645    38.789965    39.576131
O     57.221277    39.031796    40.358273
O     55.923303    37.728386    38.529211
O     54.995992    38.620144    40.847469
P     55.409691    40.988603    37.519306
O     55.828605    42.347622    37.994885
O     56.048742    40.321246    36.333864
O     55.348943    40.195157    38.941374
O     53.847629    41.267444    37.104566
C     53.300000    40.708000    35.894000
H     53.423015    41.393446    35.060309
H     53.691500    39.729077    35.582493
C     58.778000    39.640000    45.275000
H     58.950181    40.472290    44.581505
H     59.220155    38.729838    44.820328
C     57.279314    39.412148    45.425810
O     56.539808    39.448552    44.394449
O     56.769012    39.261985    46.548353
C     49.367000    33.471000    42.644000
H     50.214259    32.857358    42.983622
H     49.531280    33.663885    41.576046
C     49.312976    34.798878    43.401502
H     48.496653    35.428265    42.994769
H     49.060973    34.648988    44.469216
C     50.642231    35.551847    43.291845
H     50.832263    35.866850    42.244682
H     50.545090    36.488978    43.871471
C     51.836787    34.758767    43.824068
H     51.528279    34.066905    44.642098
H     52.302096    34.154708    43.007140
N     52.869706    35.718034    44.368139
H     52.451016    36.379535    45.057370
H     53.623081    35.199742    44.875370
H     53.301697    36.292967    43.620406
C     50.919000    37.490000    39.432000
H     51.635454    37.056645    40.166327
O     51.628036    37.727169    38.212580
H     52.574604    37.945570    38.391639
C     49.847275    36.461617    39.069466
H     49.088768    36.889638    38.409737
H     50.311128    35.621555    38.537629
H     49.368580    36.069078    39.972331
Mg    56.477822    38.765919    42.497495
O     58.428626    38.388288    42.651637
H     58.946099    37.612539    42.279470
H     58.927729    39.210708    42.300993
H     52.276686    40.595866    36.252266
H     59.281679    39.844994    46.219662
H     48.460643    32.881339    42.781541
H     50.510479    38.453600    39.736444
78
frame=9 E_kcal=-1645.9995
C     52.057952    36.114284    48.278646
C     53.134966    37.074468    48.854475
C     53.800112    37.814393    47.678631
C     52.712333    38.536009    46.842036
C     53.355844    39.220354    45.632432
C     51.079909    36.902260    47.382816
O     50.250146    36.036885    46.683102
O     51.296393    35.531118    49.297191
O     54.101889    36.285247    49.487157
O     54.676979    38.783407    48.183857
O     51.818575    37.560669    46.342022
O     54.234587    38.271873    45.106322
H     52.521741    35.271210    47.726778
H     52.708361    37.783506    49.594215
H     54.375140    37.106365    47.042728
H     52.120477    39.267442    47.402521
H     52.623014    39.487356    44.849048
H     53.895819    40.128163    45.962115
H     50.471314    37.650676    47.931970
H     49.450363    36.654605    46.334880
H     51.560721    35.876706    50.226338
H     53.954608    36.295841    50.532118
H     55.414158    38.981555    47.510832
H     55.093190    38.713057    44.801467
P     53.745420    38.251477    41.894886
O     52.752879    37.204821    41.517454
O     53.192546    39.558346    42.330737
O     54.842957    37.579573    42.779466
P     55.936089    38.793438    39.577244
O     57.227573    39.033217    40.355764
O     55.919069    37.730017    38.531983
O     55.003236    38.612522    40.851121
P     55.410855    40.990496    37.519429
O     55.829278    42.349875    37.993587
O     56.047755    40.324482    36.332636
O     55.348215    40.193225    38.937778
O     53.848924    41.267686    37.103805
C     53.300000    40.708000    35.894000
H     53.421738    41.391764    35.059759
H     53.691664    39.729750    35.583126
C     58.778000    39.640000    45.275000
H     58.950219    40.471992    44.581060
H     59.218968    38.729180    44.820257
C     57.280030    39.412579    45.424627
O     56.541583    39.449630    44.392550
O     56.768546    39.262883    46.546565
C     49.367000    33.471000    42.644000
H     50.214207    32.857657    42.984299
H     49.531717    33.663354    41.576068
C     49.312191    34.799110    43.401232
H     48.496161    35.428106    42.993176
H     49.058793    34.649508    44.468798
C     50.641727    35.551892    43.291844
H     50.832103    35.866659    42.244549
H     50.545162    36.488845    43.871908
C     51.836045    34.757973    43.823350
H     51.527623    34.065968    44.641356
H     52.300527    34.152973    43.006275
N     52.869637    35.716439    44.367809
H     52.452082    36.377398    45.058849
H     53.623047    35.196245    44.872775
H     53.300781    36.292721    43.620148
C     50.919000    37.490000    39.432000
H     51.636270    37.055284    40.165032
O     51.627561    37.727991    38.212382
H     52.574304    37.946430    38.391294
C     49.847607    36.461209    39.069537
H     49.089046    36.888870    38.409641
H     50.312028    35.621230    38.538005
H     49.369286    36.068660    39.972583
Mg    56.476570    38.763230    42.502230
O     58.426102    38.388169    42.650695
H     58.943818    37.611326    42.281819
H     58.923708    39.212482    42.302431
H     52.276686    40.595866    36.252266
H     59.281679    39.844994    46.219662
H     48.460643    32.881339    42.781541
H     50.510479    38.453600    39.736444
78
frame=10 E_kcal=-1645.8919
C     52.061586    36.116476    48.272634
C     53.140131    37.075322    48.847006
C     53.806159    37.816636    47.672505
C     52.715178    38.539192    46.840835
C     53.356410    39.231758    45.635309
C     51.084856    36.905143    47.375819
O     50.254116    36.040144    46.676860
O     51.298443    35.537710    49.292633
O     54.103566    36.285744    49.483990
O     54.679756    38.786386    48.181680
O     51.825163    37.562483    46.335890
O     54.228309    38.282382    45.098370
H     52.523338    35.270951    47.723045
H     52.713645    37.786921    49.584401
H     54.381060    37.112984    47.031859
H     52.120577    39.262934    47.407794
H     52.620328    39.507953    44.858360
H     53.902701    40.133839    45.970666
H     50.477196    37.654560    47.924657
H     49.451884    36.657523    46.332960
H     51.564364    35.882622    50.221368
H     53.954016    36.298352    50.528375
H     55.420929    38.984132    47.511738
H     55.086233    38.721991    44.790217
P     53.754087    38.247232    41.903302
O     52.740742    37.215250    41.541118
O     53.226039    39.561462    42.349338
O     54.857397    37.562255    42.769186
P     55.930940    38.793228    39.577357
O     57.222246    39.030267    40.355597
O     55.918233    37.727875    38.535308
O     54.995240    38.628862    40.848550
P     55.410100    40.988890    37.519712
O     55.828754    42.348015    37.993652
O     56.046930    40.322353    36.333527
O     55.338718    40.185808    38.931543
O     53.849178    41.269971    37.104002
C     53.300000    40.708000    35.894000
H     53.421474    41.392397    35.059626
H     53.693302    39.730439    35.582563
C     58.778000    39.640000    45.275000
H     58.948234    40.472030    44.581228
H     59.216531    38.728475    44.820253
C     57.279894    39.413243    45.425777
O     56.540040    39.455771    44.395273
O     56.774109    39.261399    46.549820
C     49.367000    33.471000    42.644000
H     50.213637    32.857928    42.985793
H     49.532673    33.662186    41.575985
C     49.307478    34.799284    43.399610
H     48.493232    35.428002    42.988089
H     49.050862    34.651605    44.466683
C     50.638842    35.547275    43.292369
H     50.831523    35.862793    42.245766
H     50.546940    36.484274    43.873799
C     51.827626    34.744033    43.822169
H     51.514341    34.050519    44.637231
H     52.290259    34.138591    43.004228
N     52.863087    35.697957    44.369512
H     52.447348    36.351350    45.068669
H     53.620324    35.175576    44.866634
H     53.288461    36.281277    43.624251
C     50.919000    37.490000    39.432000
H     51.636681    37.060337    40.167765
O     51.629141    37.727917    38.213488
H     52.574263    37.951863    38.395070
C     49.849462    36.459832    39.070220
H     49.090361    36.886570    38.410277
H     50.314867    35.620022    38.539167
H     49.371189    36.067219    39.973294
Mg    56.476273    38.775154    42.500784
O     58.425976    38.388731    42.651567
H     58.947304    37.612086    42.287203
H     58.929372    39.212396    42.312530
H     52.276686    40.595866    36.252266
H     59.281679    39.844994    46.219662
H     48.460643    32.881339    42.781541
H     50.510479    38.453600    39.736444
78
frame=11 E_kcal=-1645.3294
C     52.068580    36.120089    48.261806
C     53.150804    37.077290    48.831208
C     53.820053    37.817476    47.657026
C     52.723287    38.541982    46.834409
C     53.352440    39.253621    45.634640
C     51.095777    36.910233    47.361544
O     50.261204    36.045871    46.666284
O     51.301119    35.550758    49.284194
O     54.108448    36.289471    49.478014
O     54.684774    38.789134    48.175399
O     51.839609    37.562309    46.321555
O     54.202967    38.303440    45.064824
H     52.525965    35.269573    47.716867
H     52.723561    37.798324    49.559514
H     54.397058    37.122604    47.010053
H     52.126749    39.251220    47.417171
H     52.602201    39.559089    44.881806
H     53.917560    40.141978    45.976092
H     50.494098    37.667690    47.905932
H     49.453757    36.662050    46.332467
H     51.571832    35.894114    50.211650
H     53.950625    36.302939    50.520066
H     55.434497    38.991269    47.510521
H     55.066218    38.738531    44.763498
P     53.774702    38.232714    41.940978
O     52.723250    37.225389    41.620455
O     53.322980    39.578550    42.380513
O     54.901222    37.551398    42.769798
P     55.910847    38.777598    39.571236
O     57.194200    39.025757    40.364677
O     55.926498    37.712071    38.528476
O     54.951319    38.685186    40.829478
P     55.404273    40.981169    37.520089
O     55.829357    42.337470    37.997787
O     56.046738    40.308204    36.339092
O     55.315268    40.178120    38.933540
O     53.846138    41.270192    37.100423
C     53.300000    40.708000    35.894000
H     53.424178    41.396917    35.062990
H     53.694739    39.731320    35.580196
C     58.778000    39.640000    45.275000
H     58.946492    40.473966    44.582560
H     59.218103    38.729126    44.820704
C     57.278871    39.414742    45.431157
O     56.533381    39.467826    44.406531
O     56.787252    39.255276    46.561113
C     49.367000    33.471000    42.644000
H     50.212241    32.857628    42.987479
H     49.533939    33.661339    41.575943
C     49.298834    34.799566    43.396742
H     48.487539    35.428800    42.980721
H     49.037451    34.654659    44.462989
C     50.634332    35.537375    43.293217
H     50.831151    35.855268    42.248476
H     50.552139    36.473720    43.877430
C     51.810309    34.713880    43.821800
H     51.485140    34.016812    44.629852
H     52.270121    34.109667    43.001877
N     52.848385    35.658081    44.376318
H     52.432027    36.297617    45.087783
H     53.612295    35.133499    44.859811
H     53.263137    36.253476    43.633319
C     50.919000    37.490000    39.432000
H     51.635013    37.074197    40.178475
O     51.634128    37.725726    38.216770
H     52.575395    37.962232    38.403269
C     49.852810    36.457931    39.071842
H     49.092494    36.882850    38.411625
H     50.318709    35.618309    38.540803
H     49.373655    36.064839    39.974465
Mg    56.483394    38.801556    42.481352
O     58.437332    38.391531    42.662533
H     58.958031    37.617352    42.289247
H     58.954516    39.208198    42.327188
H     52.276686    40.595866    36.252266
H     59.281679    39.844994    46.219662
H     48.460643    32.881339    42.781541
H     50.510479    38.453600    39.736444
78
frame=12 E_kcal=-1643.9147
C     52.073305    36.122602    48.254239
C     53.157345    37.079757    48.817950
C     53.832077    37.814615    47.642293
C     52.734036    38.538698    46.822101
C     53.345039    39.268358    45.624484
C     51.104538    36.913919    47.350563
O     50.265113    36.049319    46.661887
O     51.303092    35.560224    49.278353
O     54.111811    36.295912    49.473258
O     54.687976    38.788866    48.169752
O     51.853060    37.556435    46.308151
O     54.168199    38.325107    45.007050
H     52.527121    35.267495    47.713519
H     52.730717    37.809280    49.538312
H     54.414741    37.123013    46.998294
H     52.139558    39.242144    47.415741
H     52.576953    39.608717    44.905042
H     53.928672    40.142090    45.968647
H     50.509259    37.680339    47.889510
H     49.454636    36.664170    46.333861
H     51.576435    35.900961    50.205595
H     53.947293    36.306206    50.513291
H     55.440300    38.995261    47.509050
H     55.050281    38.748559    44.741855
P     53.799619    38.233216    41.988806
O     52.725198    37.233428    41.735272
O     53.402686    39.609175    42.389671
O     54.947549    37.557664    42.782316
P     55.880328    38.760304    39.580409
O     57.165967    39.023935    40.365387
O     55.920197    37.705250    38.530552
O     54.890634    38.724852    40.810151
P     55.403818    40.972924    37.531296
O     55.836012    42.330578    38.000796
O     56.040327    40.293320    36.350881
O     55.304500    40.161604    38.933057
O     53.846341    41.268638    37.104275
C     53.300000    40.708000    35.894000
H     53.425828    41.399190    35.065582
H     53.690924    39.731976    35.575749
C     58.778000    39.640000    45.275000
H     58.947925    40.474992    44.585431
H     59.224370    38.732361    44.822027
C     57.278679    39.412547    45.429110
O     56.528341    39.468442    44.409098
O     56.793210    39.250130    46.561964
C     49.367000    33.471000    42.644000
H     50.211004    32.856741    42.987983
H     49.534544    33.661800    41.576185
C     49.293046    34.799581    43.395973
H     48.484331    35.429754    42.977732
H     49.027799    34.655427    44.461485
C     50.631495    35.530035    43.294498
H     50.833569    35.849017    42.251250
H     50.559792    36.466261    43.881738
C     51.796034    34.689174    43.821763
H     51.461865    33.990105    44.623674
H     52.255153    34.084779    43.001248
N     52.834879    35.624561    44.385192
H     52.418012    36.259041    45.101752
H     53.599180    35.094870    44.862111
H     53.245066    36.227170    43.644141
C     50.919000    37.490000    39.432000
H     51.629987    37.084877    40.189524
O     51.638037    37.723244    38.220303
H     52.576688    37.969848    38.409225
C     49.854556    36.456874    39.072946
H     49.093636    36.880785    38.412415
H     50.320250    35.617397    38.541588
H     49.375090    36.063619    39.975551
Mg    56.505877    38.825041    42.467358
O     58.456909    38.395793    42.678170
H     58.960849    37.619527    42.282528
H     58.978682    39.209202    42.332609
H     52.276686    40.595866    36.252266
H     59.281679    39.844994    46.219662
H     48.460643    32.881339    42.781541
H     50.510479    38.453600    39.736444
78
frame=13 E_kcal=-1641.8888
C     52.075939    36.124289    48.249663
C     53.161567    37.081986    48.807684
C     53.841511    37.811141    47.629078
C     52.745975    38.532660    46.804510
C     53.338372    39.279870    45.606946
C     51.110702    36.916220    47.342746
O     50.265679    36.050906    46.662241
O     51.304316    35.565960    49.274918
O     54.113080    36.300421    49.469426
O     54.689090    38.789182    48.163084
O     51.863986    37.547941    46.296327
O     54.132131    38.351277    44.932438
H     52.527183    35.266018    47.711995
H     52.735394    37.816768    49.523001
H     54.430635    37.117761    46.994987
H     52.154953    39.235620    47.405168
H     52.547859    39.649752    44.924857
H     53.941039    40.138292    45.958704
H     50.519563    37.688581    47.877512
H     49.454636    36.665186    46.334413
H     51.578717    35.904493    50.202350
H     53.944765    36.310418    50.508432
H     55.446281    38.997398    47.507872
H     55.042633    38.752575    44.723610
P     53.816773    38.241373    42.053903
O     52.718747    37.246845    41.881422
O     53.448221    39.646300    42.381551
O     55.004957    37.566868    42.782738
P     55.860229    38.750068    39.590318
O     57.153403    39.015928    40.369858
O     55.892846    37.688057    38.543358
O     54.853352    38.752192    40.808493
P     55.402898    40.966869    37.530709
O     55.841605    42.321950    38.003087
O     56.041198    40.283901    36.352332
O     55.290156    40.160594    38.935210
O     53.845487    41.263014    37.104512
C     53.300000    40.708000    35.894000
H     53.426148    41.399937    35.065962
H     53.688126    39.731185    35.572989
C     58.778000    39.640000    45.275000
H     58.949490    40.476665    44.586700
H     59.229621    38.733108    44.822486
C     57.279461    39.406859    45.419491
O     56.529229    39.454419    44.400050
O     56.785916    39.246698    46.548880
C     49.367000    33.471000    42.644000
H     50.209998    32.855909    42.988198
H     49.534803    33.662280    41.576370
C     49.289189    34.799362    43.396341
H     48.482328    35.430230    42.976569
H     49.020784    34.655262    44.461153
C     50.630151    35.523572    43.297172
H     50.836829    35.843134    42.255635
H     50.568233    36.460382    43.885333
C     51.785014    34.669426    43.822965
H     51.441757    33.967458    44.618344
H     52.242800    34.064664    43.002237
N     52.825356    35.596090    44.393525
H     52.409179    36.230053    45.109426
H     53.581388    35.057390    44.872772
H     53.235741    36.207187    43.655085
C     50.919000    37.490000    39.432000
H     51.624872    37.091327    40.198499
O     51.640698    37.721156    38.223088
H     52.577459    37.975648    38.413605
C     49.855748    36.456206    39.073482
H     49.094142    36.879899    38.413138
H     50.320961    35.616287    38.542066
H     49.376326    36.063238    39.976365
Mg    56.531010    38.846523    42.463883
O     58.468536    38.400660    42.685616
H     58.955899    37.620797    42.276940
H     58.993111    39.213995    42.337114
H     52.276686    40.595866    36.252266
H     59.281679    39.844994    46.219662
H     48.460643    32.881339    42.781541
H     50.510479    38.453600    39.736444
78
frame=14 E_kcal=-1639.0421
C     52.076758    36.125370    48.247270
C     53.163543    37.083789    48.801198
C     53.847821    37.807748    47.619553
C     52.756666    38.524380    46.786708
C     53.333275    39.286786    45.588321
C     51.113700    36.916996    47.337785
O     50.264482    36.050883    46.663503
O     51.304754    35.568832    49.273253
O     54.113435    36.303417    49.466796
O     54.687844    38.791607    48.155847
O     51.869834    37.539840    46.287127
O     54.099358    38.384092    44.850938
H     52.526887    35.265456    47.711508
H     52.737694    37.821501    49.513768
H     54.442038    37.111412    46.995443
H     52.169384    39.231504    47.390132
H     52.523246    39.678370    44.941594
H     53.954286    40.129206    45.945989
H     50.525574    37.693402    47.870162
H     49.454396    36.665969    46.334358
H     51.579761    35.906149    50.200784
H     53.943233    36.313407    50.505166
H     55.451030    38.998471    47.507814
H     55.038465    38.751446    44.711372
P     53.831100    38.251739    42.104117
O     52.705186    37.274060    42.057130
O     53.463542    39.668293    42.373344
O     55.045807    37.571721    42.774081
P     55.842495    38.749713    39.609074
O     57.155362    38.992779    40.362998
O     55.879101    37.682686    38.569627
O     54.843471    38.778109    40.829205
P     55.407326    40.956932    37.530411
O     55.840548    42.316951    37.994542
O     56.044383    40.288992    36.342060
O     55.282440    40.156434    38.936177
O     53.850435    41.259864    37.102683
C     53.300000    40.708000    35.894000
H     53.425309    41.398868    35.065215
H     53.688297    39.730922    35.573778
C     58.778000    39.640000    45.275000
H     58.949390    40.476823    44.587319
H     59.230998    38.733672    44.822650
C     57.280319    39.401368    45.409117
O     56.536221    39.436492    44.386010
O     56.780620    39.244656    46.536800
C     49.367000    33.471000    42.644000
H     50.209254    32.855162    42.988224
H     49.534819    33.662425    41.576609
C     49.286232    34.798986    43.396741
H     48.480887    35.430565    42.975874
H     49.016575    34.654921    44.461313
C     50.629317    35.518150    43.299693
H     50.838505    35.838410    42.259233
H     50.574075    36.455852    43.887877
C     51.776648    34.653667    43.825510
H     51.425357    33.948929    44.615372
H     52.233632    34.051088    43.003041
N     52.819902    35.571085    44.402376
H     52.403427    36.209121    45.113976
H     53.567493    35.024930    44.886859
H     53.234257    36.187062    43.663410
C     50.919000    37.490000    39.432000
H     51.622288    37.095473    40.202835
O     51.643707    37.719623    38.225339
H     52.578676    37.979842    38.416735
C     49.856854    36.455868    39.074045
H     49.094649    36.879433    38.414082
H     50.321072    35.615524    38.542487
H     49.376792    36.062939    39.976777
Mg    56.547695    38.867856    42.437588
O     58.468348    38.405001    42.687195
H     58.949326    37.625073    42.274308
H     58.998032    39.216367    42.340546
H     52.276686    40.595866    36.252266
H     59.281679    39.844994    46.219662
H     48.460643    32.881339    42.781541
H     50.510479    38.453600    39.736444
78
frame=15 E_kcal=-1635.2619
C     52.076947    36.125946    48.245965
C     53.164009    37.085100    48.797283
C     53.851148    37.804997    47.612816
C     52.764589    38.516627    46.770880
C     53.329154    39.286742    45.570818
C     51.115169    36.917390    47.334957
O     50.263577    36.051172    46.664036
O     51.304846    35.570441    49.272408
O     54.113322    36.305704    49.465031
O     54.684458    38.793963    48.150007
O     51.872377    37.533452    46.280285
O     54.074307    38.412546    44.777018
H     52.526890    35.265240    47.711325
H     52.738808    37.824340    49.508764
H     54.449426    37.106508    46.996841
H     52.180868    39.229381    47.376159
H     52.504848    39.699237    44.955734
H     53.965009    40.116401    45.930508
H     50.528864    37.696287    47.865754
H     49.453966    36.666520    46.333938
H     51.580224    35.906904    50.200208
H     53.942520    36.315194    50.503241
H     55.454707    38.999323    47.508881
H     55.038333    38.752018    44.700411
P     53.819027    38.261583    42.189769
O     52.683701    37.291269    42.230344
O     53.458490    39.691620    42.377690
O     55.065237    37.564428    42.764116
P     55.848663    38.746772    39.629579
O     57.190982    38.967665    40.347472
O     55.887426    37.683802    38.580456
O     54.833436    38.805657    40.846357
P     55.415362    40.959148    37.525552
O     55.839467    42.326307    37.979970
O     56.046482    40.298110    36.329090
O     55.285516    40.143649    38.923754
O     53.854221    41.261259    37.101001
C     53.300000    40.708000    35.894000
H     53.424042    41.397424    35.063749
H     53.689585    39.730973    35.575360
C     58.778000    39.640000    45.275000
H     58.949151    40.476544    44.587048
H     59.231316    38.733928    44.822105
C     57.278915    39.397962    45.403471
O     56.539335    39.421416    44.377578
O     56.778832    39.242632    46.532717
C     49.367000    33.471000    42.644000
H     50.208750    32.854578    42.988144
H     49.534791    33.662383    41.576689
C     49.284332    34.798638    43.396980
H     48.480157    35.430789    42.975288
H     49.014284    34.654679    44.461452
C     50.628774    35.514609    43.301379
H     50.838771    35.834816    42.261365
H     50.576719    36.452905    43.889725
C     51.770323    34.641981    43.827463
H     51.414638    33.936622    44.614045
H     52.228110    34.042839    43.003104
N     52.815609    35.550198    44.410746
H     52.400193    36.193737    45.117610
H     53.558538    35.002789    44.897669
H     53.235463    36.163264    43.667805
C     50.919000    37.490000    39.432000
H     51.622100    37.099207    40.203691
O     51.646288    37.718435    38.226770
H     52.580704    37.982350    38.419072
C     49.857561    36.455606    39.074883
H     49.095123    36.879173    38.414740
H     50.321014    35.615190    38.542646
H     49.376385    36.062339    39.977253
Mg    56.556014    38.888695    42.385106
O     58.464489    38.407772    42.690265
H     58.944815    37.629303    42.271948
H     58.997299    39.217032    42.340747
H     52.276686    40.595866    36.252266
H     59.281679    39.844994    46.219662
H     48.460643    32.881339    42.781541
H     50.510479    38.453600    39.736444
78
frame=16 E_kcal=-1630.7711
C     52.077132    36.126323    48.245111
C     53.164215    37.086111    48.794851
C     53.852998    37.803691    47.608453
C     52.770124    38.511245    46.757720
C     53.323692    39.284716    45.554333
C     51.115733    36.917201    47.333348
O     50.263445    36.051467    46.663798
O     51.304685    35.571813    49.271558
O     54.113286    36.307384    49.463604
O     54.681874    38.795013    48.146523
O     51.874061    37.529113    46.275685
O     54.056876    38.428032    44.717552
H     52.527158    35.265127    47.711156
H     52.739383    37.825847    49.506120
H     54.453952    37.103643    46.998403
H     52.188900    39.227832    47.365797
H     52.489954    39.715609    44.965854
H     53.972228    40.104242    45.917059
H     50.530844    37.698200    47.862891
H     49.453490    36.667064    46.333269
H     51.580484    35.907276    50.199896
H     53.942226    36.316106    50.502555
H     55.456202    38.999916    47.509032
H     55.043862    38.753892    44.688094
P     53.782143    38.270340    42.348146
O     52.657598    37.292064    42.364624
O     53.450353    39.705023    42.388988
O     55.068812    37.564791    42.754289
P     55.875601    38.748335    39.628521
O     57.228669    38.948838    40.337942
O     55.899922    37.681779    38.579147
O     54.843297    38.837084    40.807674
P     55.421477    40.965076    37.521502
O     55.839910    42.338320    37.968068
O     56.047862    40.305051    36.319309
O     55.293094    40.133304    38.906074
O     53.854746    41.263622    37.098905
C     53.300000    40.708000    35.894000
H     53.422996    41.396368    35.062481
H     53.690642    39.731137    35.576531
C     58.778000    39.640000    45.275000
H     58.949240    40.476257    44.586659
H     59.231326    38.733980    44.821533
C     57.278563    39.396179    45.401833
O     56.538207    39.411183    44.375758
O     56.777703    39.240923    46.531916
C     49.367000    33.471000    42.644000
H     50.208509    32.854286    42.988150
H     49.534803    33.662288    41.576655
C     49.283382    34.798327    43.396996
H     48.479939    35.430832    42.974829
H     49.013016    34.654649    44.461318
C     50.628489    35.512608    43.302353
H     50.838731    35.832630    42.262413
H     50.577700    36.451130    43.890752
C     51.766281    34.634466    43.829015
H     51.408394    33.929207    44.613605
H     52.225183    34.038283    43.002888
N     52.813022    35.536068    44.415956
H     52.398144    36.182848    45.119660
H     53.554463    34.988850    44.903923
H     53.236725    36.143345    43.667632
C     50.919000    37.490000    39.432000
H     51.622804    37.102299    40.203507
O     51.646598    37.717332    38.228224
H     52.581866    37.983325    38.421203
C     49.857826    36.455318    39.075693
H     49.095500    36.879020    38.415067
H     50.320978    35.615121    38.542637
H     49.376018    36.061942    39.977367
Mg    56.558417    38.898499    42.341789
O     58.461189    38.409005    42.693495
H     58.942174    37.632335    42.270317
H     58.995618    39.217232    42.339690
H     52.276686    40.595866    36.252266
H     59.281679    39.844994    46.219662
H     48.460643    32.881339    42.781541
H     50.510479    38.453600    39.736444
78
frame=17 E_kcal=-1628.9061
C     52.077390    36.126564    48.244593
C     53.164419    37.086622    48.793901
C     53.854050    37.803314    47.606701
C     52.772562    38.508547    46.751488
C     53.320078    39.283701    45.546167
C     51.116054    36.917074    47.332515
O     50.263862    36.051896    46.663072
O     51.304416    35.572877    49.270860
O     54.113333    36.308210    49.462994
O     54.680978    38.796022    48.145089
O     51.875031    37.527090    46.273597
O     54.048310    38.433945    44.687083
H     52.527343    35.265049    47.710994
H     52.739481    37.826309    49.505304
H     54.455550    37.102430    46.998842
H     52.192165    39.226744    47.361303
H     52.482950    39.722837    44.968733
H     53.974807    40.097979    45.911297
H     50.531833    37.698949    47.861449
H     49.453206    36.667298    46.332898
H     51.580631    35.907391    50.199541
H     53.942152    36.316403    50.502302
H     55.457104    39.000159    47.509094
H     55.050473    38.754143    44.681158
P     53.760906    38.276307    42.447694
O     52.645551    37.291050    42.427892
O     53.445865    39.709081    42.396954
O     55.067712    37.567320    42.751883
P     55.891678    38.749950    39.624195
O     57.246490    38.940348    40.334338
O     55.906556    37.680569    38.576868
O     54.850302    38.852349    40.776457
P     55.424150    40.968559    37.519542
O     55.840586    42.344451    37.962711
O     56.048409    40.308129    36.314814
O     55.298101    40.128447    38.896647
O     53.854627    41.264997    37.097688
C     53.300000    40.708000    35.894000
H     53.422585    41.396001    35.061956
H     53.691054    39.731202    35.576963
C     58.778000    39.640000    45.275000
H     58.949462    40.476234    44.586405
H     59.231429    38.733895    44.821223
C     57.277902    39.395750    45.401022
O     56.534151    39.406431    44.376557
O     56.776955    39.240194    46.531379
C     49.367000    33.471000    42.644000
H     50.208426    32.854245    42.988187
H     49.534823    33.662225    41.576620
C     49.282983    34.798277    43.396850
H     48.479733    35.430925    42.974514
H     49.012509    34.654703    44.461158
C     50.628488    35.511707    43.302618
H     50.838589    35.831918    42.262632
H     50.577941    36.450264    43.890937
C     51.764875    34.631422    43.829648
H     51.406471    33.926732    44.613578
H     52.224006    34.036630    43.002763
N     52.812318    35.529799    44.418207
H     52.397133    36.177825    45.120593
H     53.553801    34.983451    44.905704
H     53.237411    36.134311    43.665671
C     50.919000    37.490000    39.432000
H     51.623322    37.103444    40.203501
O     51.646651    37.716877    38.228191
H     52.582260    37.983601    38.421755
C     49.857927    36.455191    39.076022
H     49.095613    36.878946    38.415119
H     50.320984    35.615105    38.542586
H     49.375852    36.061773    39.977379
Mg    56.558352    38.900946    42.321810
O     58.459780    38.409502    42.695079
H     58.941363    37.633504    42.269649
H     58.995000    39.217204    42.339146
H     52.276686    40.595866    36.252266
H     59.281679    39.844994    46.219662
H     48.460643    32.881339    42.781541
H     50.510479    38.453600    39.736444
78
frame=18 E_kcal=-1628.5578
C     52.077487    36.126683    48.244356
C     53.164453    37.086788    48.793658
C     53.854289    37.803309    47.606339
C     52.773345    38.508052    46.749915
C     53.319404    39.283358    45.544426
C     51.116184    36.917098    47.332158
O     50.264096    36.052084    46.662847
O     51.304340    35.573265    49.270599
O     54.113360    36.308455    49.462791
O     54.680682    38.796294    48.144652
O     51.875667    37.526733    46.272912
O     54.045276    38.434839    44.677761
H     52.527386    35.265007    47.710949
H     52.739488    37.826340    49.505186
H     54.455767    37.102249    46.998814
H     52.192670    39.226340    47.360483
H     52.482548    39.723404    44.968909
H     53.975160    40.097155    45.910621
H     50.532028    37.699010    47.861146
H     49.453084    36.667332    46.332803
H     51.580671    35.907398    50.199440
H     53.942135    36.316457    50.502272
H     55.457379    39.000231    47.509020
H     55.051253    38.753998    44.680292
P     53.755488    38.278308    42.479226
O     52.642732    37.290503    42.442681
O     53.444976    39.708996    42.398404
O     55.066154    37.568377    42.750941
P     55.896025    38.750381    39.622740
O     57.250973    38.938364    40.333611
O     55.908068    37.680410    38.576182
O     54.851993    38.855897    40.767579
P     55.425060    40.969499    37.519122
O     55.840784    42.346109    37.961448
O     56.048312    40.308877    36.313554
O     55.299429    40.127278    38.894326
O     53.854843    41.265302    37.097314
C     53.300000    40.708000    35.894000
H     53.422524    41.395940    35.061873
H     53.691137    39.731241    35.577059
C     58.778000    39.640000    45.275000
H     58.949516    40.476224    44.586374
H     59.231456    38.733921    44.821186
C     57.277944    39.395777    45.400904
O     56.533550    39.405749    44.376505
O     56.776689    39.240045    46.531278
C     49.367000    33.471000    42.644000
H     50.208408    32.854239    42.988195
H     49.534828    33.662200    41.576600
C     49.282799    34.798275    43.396804
H     48.479639    35.431033    42.974385
H     49.012437    34.654736    44.461091
C     50.628371    35.511507    43.302598
H     50.838569    35.831777    42.262662
H     50.578017    36.450102    43.890966
C     51.764463    34.630732    43.829551
H     51.406258    33.926294    44.613839
H     52.223871    34.036055    43.002507
N     52.811996    35.528373    44.418726
H     52.397243    36.176436    45.120970
H     53.553631    34.982771    44.905769
H     53.237771    36.132360    43.665050
C     50.919000    37.490000    39.432000
H     51.623418    37.103568    40.203437
O     51.646619    37.716766    38.228271
H     52.582380    37.983639    38.421719
C     49.857921    36.455144    39.076087
H     49.095662    36.878915    38.415133
H     50.320998    35.615109    38.542561
H     49.375812    36.061734    39.977383
Mg    56.558530    38.901581    42.316334
O     58.459493    38.409585    42.695461
H     58.941237    37.633728    42.269511
H     58.994880    39.217219    42.339028
H     52.276686    40.595866    36.252266
H     59.281679    39.844994    46.219662
H     48.460643    32.881339    42.781541
H     50.510479    38.453600    39.736444
78
frame=19 E_kcal=-1628.4629
C     52.077510    36.126717    48.244286
C     53.164491    37.086801    48.793569
C     53.854345    37.803357    47.606201
C     52.773635    38.508009    46.749412
C     53.319795    39.283170    45.543858
C     51.116234    36.917118    47.332013
O     50.264103    36.052139    46.662763
O     51.304328    35.573388    49.270490
O     54.113370    36.308532    49.462745
O     54.680552    38.796362    48.144592
O     51.875891    37.526608    46.272689
O     54.045094    38.435335    44.674899
H     52.527394    35.265000    47.710945
H     52.739475    37.826358    49.505189
H     54.455797    37.102215    46.998780
H     52.192658    39.226280    47.360462
H     52.482647    39.723322    44.968876
H     53.975081    40.097003    45.910564
H     50.532054    37.699012    47.861100
H     49.453083    36.667319    46.332792
H     51.580684    35.907399    50.199426
H     53.942130    36.316468    50.502262
H     55.457412    39.000232    47.508959
H     55.050369    38.753758    44.680340
P     53.752420    38.278292    42.489166
O     52.641790    37.290133    42.446490
O     53.444477    39.710437    42.398466
O     55.067428    37.567775    42.750878
P     55.897069    38.750699    39.622637
O     57.252160    38.937811    40.333431
O     55.908453    37.680292    38.575897
O     54.852787    38.856839    40.764660
P     55.425384    40.969715    37.519127
O     55.840849    42.346657    37.961123
O     56.048256    40.309054    36.313103
O     55.299802    40.126938    38.893698
O     53.854928    41.265376    37.097180
C     53.300000    40.708000    35.894000
H     53.422515    41.395925    35.061860
H     53.691155    39.731262    35.577088
C     58.778000    39.640000    45.275000
H     58.949533    40.476217    44.586372
H     59.231466    38.733944    44.821184
C     57.277773    39.395779    45.400774
O     56.533558    39.405602    44.376513
O     56.776714    39.240024    46.531270
C     49.367000    33.471000    42.644000
H     50.208408    32.854235    42.988197
H     49.534828    33.662195    41.576597
C     49.282719    34.798309    43.396729
H     48.479644    35.431055    42.974360
H     49.012430    34.654746    44.461094
C     50.628296    35.511430    43.302636
H     50.838584    35.831758    42.262632
H     50.578040    36.450127    43.890986
C     51.764225    34.630261    43.829460
H     51.406268    33.926267    44.613902
H     52.223861    34.035938    43.002470
N     52.811865    35.527988    44.418456
H     52.397338    36.176149    45.121261
H     53.553613    34.982693    44.905806
H     53.237896    36.131942    43.664949
C     50.919000    37.490000    39.432000
H     51.623426    37.103577    40.203399
O     51.646566    37.716728    38.228315
H     52.582432    37.983646    38.421704
C     49.857943    36.455126    39.076132
H     49.095665    36.878911    38.415124
H     50.321003    35.615110    38.542550
H     49.375806    36.061729    39.977374
Mg    56.558640    38.901808    42.314657
O     58.459377    38.409607    42.695594
H     58.941231    37.633749    42.269461
H     58.994865    39.217250    42.338985
H     52.276686    40.595866    36.252266
H     59.281679    39.844994    46.219662
H     48.460643    32.881339    42.781541
H     50.510479    38.453600    39.736444
78
frame=20 E_kcal=-1628.4629
C     52.077510    36.126717    48.244286
C     53.164491    37.086801    48.793569
C     53.854345    37.803357    47.606201
C     52.773635    38.508009    46.749412
C     53.319795    39.283170    45.543858
C     51.116234    36.917118    47.332013
O     50.264103    36.052139    46.662763
O     51.304328    35.573388    49.270490
O     54.113370    36.308532    49.462745
O     54.680552    38.796362    48.144592
O     51.875891    37.526608    46.272689
O     54.045094    38.435335    44.674899
H     52.527394    35.265000    47.710945
H     52.739475    37.826358    49.505189
H     54.455797    37.102215    46.998780
H     52.192658    39.226280    47.360462
H     52.482647    39.723322    44.968876
H     53.975081    40.097003    45.910564
H     50.532054    37.699012    47.861100
H     49.453083    36.667319    46.332792
H     51.580684    35.907399    50.199426
H     53.942130    36.316468    50.502262
H     55.457412    39.000232    47.508959
H     55.050369    38.753758    44.680340
P     53.752420    38.278292    42.489166
O     52.641790    37.290133    42.446490
O     53.444477    39.710437    42.398466
O     55.067428    37.567775    42.750878
P     55.897069    38.750699    39.622637
O     57.252160    38.937811    40.333431
O     55.908453    37.680292    38.575897
O     54.852787    38.856839    40.764660
P     55.425384    40.969715    37.519127
O     55.840849    42.346657    37.961123
O     56.048256    40.309054    36.313103
O     55.299802    40.126938    38.893698
O     53.854928    41.265376    37.097180
C     53.300000    40.708000    35.894000
H     53.422515    41.395925    35.061860
H     53.691155    39.731262    35.577088
C     58.778000    39.640000    45.275000
H     58.949533    40.476217    44.586372
H     59.231466    38.733944    44.821184
C     57.277773    39.395779    45.400774
O     56.533558    39.405602    44.376513
O     56.776714    39.240024    46.531270
C     49.367000    33.471000    42.644000
H     50.208408    32.854235    42.988197
H     49.534828    33.662195    41.576597
C     49.282719    34.798309    43.396729
H     48.479644    35.431055    42.974360
H     49.012430    34.654746    44.461094
C     50.628296    35.511430    43.302636
H     50.838584    35.831758    42.262632
H     50.578040    36.450127    43.890986
C     51.764225    34.630261    43.829460
H     51.406268    33.926267    44.613902
H     52.223861    34.035938    43.002470
N     52.811865    35.527988    44.418456
H     52.397338    36.176149    45.121261
H     53.553613    34.982693    44.905806
H     53.237896    36.131942    43.664949
C     50.919000    37.490000    39.432000
H     51.623426    37.103577    40.203399
O     51.646566    37.716728    38.228315
H     52.582432    37.983646    38.421704
C     49.857943    36.455126    39.076132
H     49.095665    36.878911    38.415124
H     50.321003    35.615110    38.542550
H     49.375806    36.061729    39.977374
Mg    56.558640    38.901808    42.314657
O     58.459377    38.409607    42.695594
H     58.941231    37.633749    42.269461
H     58.994865    39.217250    42.338985
H     52.276686    40.595866    36.252266
H     59.281679    39.844994    46.219662
H     48.460643    32.881339    42.781541
H     50.510479    38.453600    39.736444
78
frame=21 E_kcal=-1628.0546
C     52.078221    36.127957    48.242180
C     53.165325    37.088229    48.790070
C     53.857561    37.802369    47.601863
C     52.779379    38.504247    46.738453
C     53.321446    39.283327    45.533240
C     51.118431    36.918599    47.328526
O     50.264569    36.054020    46.661972
O     51.304508    35.575906    49.268560
O     54.113284    36.310737    49.461390
O     54.679043    38.798124    48.142233
O     51.880242    37.522942    46.266692
O     54.039402    38.439634    44.642822
H     52.527678    35.265387    47.709748
H     52.740487    37.829650    49.499850
H     54.462562    37.100354    46.999714
H     52.200362    39.225796    47.350347
H     52.482332    39.742313    44.976561
H     53.992227    40.084336    45.901816
H     50.536895    37.703894    47.855389
H     49.453051    36.669608    46.332173
H     51.581407    35.909028    50.197637
H     53.940864    36.318562    50.500814
H     55.459549    39.001327    47.511138
H     55.061117    38.761777    44.658210
P     53.739301    38.285810    42.569233
O     52.633048    37.291970    42.521099
O     53.439484    39.709877    42.400010
O     55.065711    37.573064    42.742395
P     55.908659    38.751118    39.615181
O     57.264229    38.927390    40.329039
O     55.914327    37.676578    38.572866
O     54.855010    38.872614    40.736126
P     55.428116    40.973078    37.514792
O     55.841557    42.351701    37.955218
O     56.048939    40.312843    36.306385
O     55.306243    40.122033    38.882413
O     53.855338    41.266895    37.095625
C     53.300000    40.708000    35.894000
H     53.421517    41.394786    35.060619
H     53.691488    39.731052    35.578045
C     58.778000    39.640000    45.275000
H     58.949024    40.476389    44.586265
H     59.231936    38.734335    44.820319
C     57.277725    39.394405    45.400744
O     56.531415    39.400662    44.376708
O     56.776506    39.239068    46.531147
C     49.367000    33.471000    42.644000
H     50.207053    32.853804    42.990106
H     49.536523    33.660831    41.576616
C     49.279096    34.799298    43.394498
H     48.478604    35.432051    42.967484
H     49.003732    34.657419    44.457739
C     50.626154    35.509547    43.305544
H     50.838149    35.836649    42.268134
H     50.579706    36.444438    43.900843
C     51.756546    34.617577    43.826030
H     51.393987    33.910109    44.605119
H     52.212667    34.026527    42.994681
N     52.808904    35.503546    44.421030
H     52.396651    36.152476    45.123768
H     53.545683    34.950776    44.906702
H     53.239414    36.108990    43.666795
C     50.919000    37.490000    39.432000
H     51.623960    37.106007    40.204009
O     51.646640    37.716100    38.228507
H     52.582045    37.986263    38.421626
C     49.858554    36.454399    39.077088
H     49.096126    36.877515    38.415689
H     50.321816    35.614245    38.543840
H     49.376337    36.061380    39.978406
Mg    56.556372    38.901021    42.296516
O     58.456021    38.411954    42.696129
H     58.937668    37.636958    42.267729
H     58.991882    39.219486    42.338075
H     52.276686    40.595866    36.252266
H     59.281679    39.844994    46.219662
H     48.460643    32.881339    42.781541
H     50.510479    38.453600    39.736444
78
frame=22 E_kcal=-1628.2907
C     52.078932    36.129197    48.240074
C     53.166160    37.089656    48.786571
C     53.860777    37.801381    47.597526
C     52.785124    38.500486    46.727494
C     53.323096    39.283485    45.522623
C     51.120629    36.920080    47.325040
O     50.265035    36.055900    46.661180
O     51.304688    35.578423    49.266630
O     54.113198    36.312942    49.460034
O     54.677535    38.799887    48.139874
O     51.884592    37.519275    46.260696
O     54.033710    38.443933    44.610745
H     52.527962    35.265775    47.708551
H     52.741499    37.832943    49.494511
H     54.469327    37.098493    47.000649
H     52.208066    39.225312    47.340233
H     52.482017    39.761305    44.984245
H     54.009373    40.071669    45.893069
H     50.541736    37.708776    47.849679
H     49.453019    36.671897    46.331555
H     51.582131    35.910658    50.195848
H     53.939598    36.320656    50.499365
H     55.461687    39.002421    47.513317
H     55.071865    38.769797    44.636080
P     53.726182    38.293327    42.649301
O     52.624305    37.293807    42.595707
O     53.434491    39.709317    42.401553
O     55.063993    37.578353    42.733912
P     55.920249    38.751538    39.607726
O     57.276298    38.916969    40.324648
O     55.920202    37.672865    38.569836
O     54.857233    38.888389    40.707592
P     55.430848    40.976441    37.510457
O     55.842265    42.356744    37.949312
O     56.049622    40.316632    36.299667
O     55.312683    40.117128    38.871128
O     53.855748    41.268415    37.094069
C     53.300000    40.708000    35.894000
H     53.420519    41.393647    35.059378
H     53.691820    39.730842    35.579003
C     58.778000    39.640000    45.275000
H     58.948516    40.476562    44.586157
H     59.232406    38.734727    44.819453
C     57.277677    39.393031    45.400713
O     56.529273    39.395721    44.376902
O     56.776298    39.238112    46.531023
C     49.367000    33.471000    42.644000
H     50.205698    32.853374    42.992015
H     49.538218    33.659468    41.576636
C     49.275473    34.800287    43.392267
H     48.477563    35.433046    42.960607
H     48.995034    34.660091    44.454384
C     50.624013    35.507665    43.308452
H     50.837714    35.841541    42.273637
H     50.581372    36.438749    43.910700
C     51.748868    34.604892    43.822600
H     51.381707    33.893951    44.596336
H     52.201472    34.017116    42.986892
N     52.805944    35.479105    44.423603
H     52.395964    36.128803    45.126274
H     53.537754    34.918859    44.907597
H     53.240932    36.086039    43.668641
C     50.919000    37.490000    39.432000
H     51.624495    37.108437    40.204619
O     51.646713    37.715471    38.228698
H     52.581659    37.988881    38.421548
C     49.859166    36.453673    39.078043
H     49.096587    36.876118    38.416254
H     50.322629    35.613379    38.545129
H     49.376869    36.061030    39.979437
Mg    56.554104    38.900234    42.278376
O     58.452666    38.414301    42.696663
H     58.934105    37.640168    42.265996
H     58.988899    39.221722    42.337165
H     52.276686    40.595866    36.252266
H     59.281679    39.844994    46.219662
H     48.460643    32.881339    42.781541
H     50.510479    38.453600    39.736444
78
frame=23 E_kcal=-1628.2907
C     52.078932    36.129197    48.240074
C     53.166160    37.089656    48.786571
C     53.860777    37.801381    47.597526
C     52.785124    38.500486    46.727494
C     53.323096    39.283485    45.522623
C     51.120629    36.920080    47.325040
O     50.265035    36.055900    46.661180
O     51.304688    35.578423    49.266630
O     54.113198    36.312942    49.460034
O     54.677535    38.799887    48.139874
O     51.884592    37.519275    46.260696
O     54.033710    38.443933    44.610745
H     52.527962    35.265775    47.708551
H     52.741499    37.832943    49.494511
H     54.469327    37.098493    47.000649
H     52.208066    39.225312    47.340233
H     52.482017    39.761305    44.984245
H     54.009373    40.071669    45.893069
H     50.541736    37.708776    47.849679
H     49.453019    36.671897    46.331555
H     51.582131    35.910658    50.195848
H     53.939598    36.320656    50.499365
H     55.461687    39.002421    47.513317
H     55.071865    38.769797    44.636080
P     53.726182    38.293327    42.649301
O     52.624305    37.293807    42.595707
O     53.434491    39.709317    42.401553
O     55.063993    37.578353    42.733912
P     55.920249    38.751538    39.607726
O     57.276298    38.916969    40.324648
O     55.920202    37.672865    38.569836
O     54.857233    38.888389    40.707592
P     55.430848    40.976441    37.510457
O     55.842265    42.356744    37.949312
O     56.049622    40.316632    36.299667
O     55.312683    40.117128    38.871128
O     53.855748    41.268415    37.094069
C     53.300000    40.708000    35.894000
H     53.420519    41.393647    35.059378
H     53.691820    39.730842    35.579003
C     58.778000    39.640000    45.275000
H     58.948516    40.476562    44.586157
H     59.232406    38.734727    44.819453
C     57.277677    39.393031    45.400713
O     56.529273    39.395721    44.376902
O     56.776298    39.238112    46.531023
C     49.367000    33.471000    42.644000
H     50.205698    32.853374    42.992015
H     49.538218    33.659468    41.576636
C     49.275473    34.800287    43.392267
H     48.477563    35.433046    42.960607
H     48.995034    34.660091    44.454384
C     50.624013    35.507665    43.308452
H     50.837714    35.841541    42.273637
H     50.581372    36.438749    43.910700
C     51.748868    34.604892    43.822600
H     51.381707    33.893951    44.596336
H     52.201472    34.017116    42.986892
N     52.805944    35.479105    44.423603
H     52.395964    36.128803    45.126274
H     53.537754    34.918859    44.907597
H     53.240932    36.086039    43.668641
C     50.919000    37.490000    39.432000
H     51.624495    37.108437    40.204619
O     51.646713    37.715471    38.228698
H     52.581659    37.988881    38.421548
C     49.859166    36.453673    39.078043
H     49.096587    36.876118    38.416254
H     50.322629    35.613379    38.545129
H     49.376869    36.061030    39.979437
Mg    56.554104    38.900234    42.278376
O     58.452666    38.414301    42.696663
H     58.934105    37.640168    42.265996
H     58.988899    39.221722    42.337165
H     52.276686    40.595866    36.252266
H     59.281679    39.844994    46.219662
H     48.460643    32.881339    42.781541
H     50.510479    38.453600    39.736444
78
frame=24 E_kcal=-1628.3200
C     52.078970    36.129260    48.239984
C     53.166179    37.089754    48.786421
C     53.860919    37.801287    47.597363
C     52.785197    38.500279    46.727270
C     53.322750    39.283701    45.522631
C     51.120733    36.920168    47.324927
O     50.265086    36.056020    46.661182
O     51.304711    35.578545    49.266564
O     54.113190    36.313074    49.459955
O     54.677512    38.799991    48.139701
O     51.884771    37.519061    46.260362
O     54.033477    38.444047    44.611593
H     52.527959    35.265780    47.708542
H     52.741527    37.832947    49.494445
H     54.469377    37.098487    47.000671
H     52.208183    39.225303    47.340116
H     52.481858    39.761557    44.984332
H     54.009572    40.071735    45.893047
H     50.541763    37.708806    47.849666
H     49.453005    36.671936    46.331558
H     51.582125    35.910672    50.195841
H     53.939590    36.320667    50.499355
H     55.461682    39.002431    47.513387
H     55.073132    38.770121    44.635972
P     53.726796    38.294398    42.652692
O     52.624267    37.294337    42.599369
O     53.434508    39.707696    42.401897
O     55.062227    37.579575    42.733380
P     55.921489    38.751614    39.606384
O     57.276583    38.916488    40.324408
O     55.920422    37.672567    38.569736
O     54.858312    38.889284    40.705922
P     55.430975    40.976790    37.509761
O     55.842292    42.356799    37.949039
O     56.049799    40.316823    36.299340
O     55.312968    40.117042    38.870493
O     53.855699    41.268494    37.094032
C     53.300000    40.708000    35.894000
H     53.420517    41.393654    35.059376
H     53.691804    39.730820    35.578984
C     58.778000    39.640000    45.275000
H     58.948494    40.476572    44.586154
H     59.232401    38.734705    44.819442
C     57.277849    39.392931    45.400823
O     56.529048    39.395357    44.376921
O     56.776235    39.238047    46.531018
C     49.367000    33.471000    42.644000
H     50.205687    32.853376    42.992026
H     49.538227    33.659462    41.576637
C     49.275315    34.800303    43.392218
H     48.477522    35.433048    42.960574
H     48.994976    34.660099    44.454351
C     50.623926    35.507586    43.308572
H     50.837692    35.841575    42.273738
H     50.581365    36.438667    43.910751
C     51.748610    34.604409    43.822595
H     51.381567    33.893780    44.596276
H     52.201399    34.017105    42.986829
N     52.805628    35.478350    44.423398
H     52.395980    36.128349    45.126498
H     53.537603    34.918840    44.907844
H     53.241002    36.085973    43.668598
C     50.919000    37.490000    39.432000
H     51.624493    37.108452    40.204666
O     51.646655    37.715416    38.228735
H     52.580943    37.988758    38.422342
C     49.859175    36.453644    39.078064
H     49.096597    36.876109    38.416272
H     50.322633    35.613368    38.545147
H     49.376873    36.061029    39.979458
Mg    56.552590    38.899767    42.278459
O     58.452414    38.414480    42.696549
H     58.934057    37.640211    42.266049
H     58.988894    39.221692    42.337224
H     52.276686    40.595866    36.252266
H     59.281679    39.844994    46.219662
H     48.460643    32.881339    42.781541
H     50.510479    38.453600    39.736444
78
frame=25 E_kcal=-1628.3941
C     52.079083    36.129444    48.239774
C     53.166273    37.089923    48.786133
C     53.861062    37.801270    47.596984
C     52.785178    38.500074    46.726904
C     53.322395    39.284671    45.523052
C     51.120937    36.920348    47.324554
O     50.265133    36.056220    46.661142
O     51.304743    35.578913    49.266365
O     54.113255    36.313404    49.459820
O     54.677244    38.800236    48.139356
O     51.885240    37.518582    46.259747
O     54.034252    38.443923    44.612610
H     52.527966    35.265798    47.708488
H     52.741600    37.833055    49.494183
H     54.469726    37.098302    47.000584
H     52.208465    39.225044    47.339819
H     52.481158    39.762536    44.984684
H     54.009862    40.071985    45.893112
H     50.541999    37.708943    47.849479
H     49.452982    36.672088    46.331565
H     51.582142    35.910750    50.195751
H     53.939538    36.320738    50.499208
H     55.461733    39.002489    47.513539
H     55.075957    38.771180    44.636183
P     53.724717    38.295961    42.663517
O     52.623024    37.295126    42.611014
O     53.433637    39.707958    42.402329
O     55.061865    37.580233    42.732463
P     55.924586    38.752211    39.603477
O     57.278653    38.914997    40.323846
O     55.921318    37.671182    38.568529
O     54.860723    38.892029    40.700992
P     55.431252    40.977533    37.508409
O     55.842515    42.357602    37.948124
O     56.050285    40.317376    36.297902
O     55.314231    40.116684    38.867955
O     53.855575    41.268702    37.093751
C     53.300000    40.708000    35.894000
H     53.420463    41.393646    35.059316
H     53.691760    39.730781    35.578960
C     58.778000    39.640000    45.275000
H     58.948434    40.476594    44.586113
H     59.232425    38.734653    44.819362
C     57.277955    39.392588    45.400895
O     56.528652    39.394263    44.377322
O     56.776265    39.237869    46.531006
C     49.367000    33.471000    42.644000
H     50.205653    32.853386    42.992071
H     49.538262    33.659441    41.576641
C     49.275004    34.800289    43.392162
H     48.477286    35.433100    42.960415
H     48.994704    34.660104    44.454280
C     50.623661    35.507282    43.308706
H     50.837649    35.841646    42.274141
H     50.581395    36.438385    43.911001
C     51.748042    34.603504    43.822475
H     51.380899    33.892851    44.596231
H     52.201072    34.016745    42.986433
N     52.805270    35.477094    44.423671
H     52.395849    36.126663    45.126744
H     53.537122    34.918244    44.908405
H     53.240770    36.085425    43.668437
C     50.919000    37.490000    39.432000
H     51.624470    37.108540    40.204796
O     51.646127    37.715127    38.228852
H     52.579959    37.988766    38.424389
C     49.859151    36.453576    39.078192
H     49.096623    36.876067    38.416333
H     50.322645    35.613316    38.545201
H     49.376868    36.061002    39.979535
Mg    56.549526    38.898820    42.277747
O     58.451384    38.414771    42.696109
H     58.933672    37.640588    42.266287
H     58.988508    39.221645    42.337293
H     52.276686    40.595866    36.252266
H     59.281679    39.844994    46.219662
H     48.460643    32.881339    42.781541
H     50.510479    38.453600    39.736444
78
frame=26 E_kcal=-1628.7557
C     52.079310    36.129673    48.239333
C     53.166507    37.090207    48.785521
C     53.861480    37.801243    47.596255
C     52.785597    38.499931    46.725933
C     53.322029    39.285927    45.522946
C     51.121311    36.920423    47.323846
O     50.265180    36.056508    46.660880
O     51.304572    35.579768    49.265915
O     54.113625    36.314086    49.459446
O     54.676594    38.801001    48.138686
O     51.886104    37.518259    46.258900
O     54.034951    38.444210    44.611664
H     52.528089    35.265868    47.708260
H     52.741784    37.833650    49.493306
H     54.470479    37.098196    47.000392
H     52.208325    39.224391    47.339711
H     52.480195    39.765632    44.987000
H     54.010406    40.072881    45.893618
H     50.542988    37.709622    47.848440
H     49.452851    36.672596    46.331460
H     51.582328    35.911124    50.195314
H     53.939351    36.321042    50.498765
H     55.461947    39.002651    47.514058
H     55.083323    38.775116    44.637464
P     53.720647    38.300356    42.693499
O     52.618670    37.298988    42.646093
O     53.431651    39.707353    42.405411
O     55.057464    37.582934    42.730823
P     55.932087    38.752249    39.598757
O     57.285546    38.910132    40.321218
O     55.924784    37.669588    38.565915
O     54.863724    38.899564    40.688446
P     55.433127    40.979721    37.504771
O     55.842889    42.360394    37.944649
O     56.050675    40.319842    36.293020
O     55.319494    40.114039    38.860899
O     53.856031    41.269394    37.092999
C     53.300000    40.708000    35.894000
H     53.420035    41.393361    35.058873
H     53.691694    39.730715    35.579042
C     58.778000    39.640000    45.275000
H     58.948197    40.476566    44.585955
H     59.232600    38.734751    44.819011
C     57.278530    39.391803    45.401732
O     56.528803    39.392094    44.377943
O     56.776498    39.237243    46.531609
C     49.367000    33.471000    42.644000
H     50.205559    32.853388    42.992236
H     49.538388    33.659381    41.576658
C     49.274344    34.800270    43.392083
H     48.476759    35.433054    42.959996
H     48.993601    34.660095    44.454110
C     50.623411    35.506533    43.309298
H     50.837632    35.841740    42.275031
H     50.581539    36.437360    43.912086
C     51.746912    34.600967    43.822650
H     51.378876    33.890020    44.595245
H     52.199661    34.015355    42.985745
N     52.804204    35.472554    44.425176
H     52.394332    36.122332    45.127837
H     53.536108    34.914211    44.909617
H     53.239563    36.082585    43.668298
C     50.919000    37.490000    39.432000
H     51.624273    37.108983    40.205121
O     51.647097    37.714808    38.229164
H     52.579813    37.989916    38.427512
C     49.859138    36.453440    39.078575
H     49.096635    36.875873    38.416606
H     50.322565    35.613207    38.545511
H     49.376695    36.060797    39.979937
Mg    56.546535    38.897444    42.270709
O     58.447959    38.415567    42.695123
H     58.931723    37.641652    42.266665
H     58.985782    39.221959    42.336920
H     52.276686    40.595866    36.252266
H     59.281679    39.844994    46.219662
H     48.460643    32.881339    42.781541
H     50.510479    38.453600    39.736444
78
frame=27 E_kcal=-1629.0920
C     52.079546    36.130059    48.238596
C     53.166735    37.090613    48.784629
C     53.861996    37.801472    47.595463
C     52.785706    38.499462    46.724887
C     53.320881    39.289327    45.524185
C     51.121774    36.920908    47.322821
O     50.265309    36.057177    46.660473
O     51.304484    35.580850    49.265270
O     54.113860    36.314996    49.458999
O     54.675764    38.802192    48.138351
O     51.887008    37.517755    46.257387
O     54.037663    38.448176    44.612322
H     52.528330    35.265901    47.707967
H     52.742045    37.834597    49.491806
H     54.471671    37.098642    47.000181
H     52.208334    39.223514    47.339499
H     52.477649    39.773318    44.992815
H     54.012132    40.073260    45.894786
H     50.544191    37.711030    47.846928
H     49.452938    36.673487    46.330966
H     51.582573    35.911809    50.194679
H     53.939220    36.321591    50.498212
H     55.462453    39.002936    47.515725
H     55.099281    38.785173    44.636434
P     53.713917    38.309088    42.741046
O     52.609173    37.309177    42.709146
O     53.429285    39.707615    42.410944
O     55.052498    37.590168    42.727507
P     55.941306    38.752546    39.591374
O     57.294918    38.900427    40.315785
O     55.929886    37.665831    38.563081
O     54.866413    38.911710    40.669636
P     55.437119    40.982001    37.497657
O     55.843310    42.363554    37.938110
O     56.051382    40.324756    36.282608
O     55.329437    40.111306    38.850131
O     53.857816    41.269727    37.091487
C     53.300000    40.708000    35.894000
H     53.418876    41.392433    35.057882
H     53.691642    39.730483    35.579470
C     58.778000    39.640000    45.275000
H     58.947530    40.476607    44.585716
H     59.233066    38.735199    44.818255
C     57.279115    39.390584    45.403164
O     56.528546    39.388547    44.378862
O     56.777044    39.235934    46.532831
C     49.367000    33.471000    42.644000
H     50.205262    32.853192    42.992474
H     49.538669    33.659310    41.576718
C     49.273160    34.800122    43.391980
H     48.476328    35.433038    42.959148
H     48.991395    34.660133    44.453733
C     50.622806    35.504940    43.310599
H     50.838292    35.841661    42.277183
H     50.582398    36.435245    43.914881
C     51.743697    34.595120    43.822905
H     51.373659    33.882826    44.593137
H     52.196711    34.011483    42.984772
N     52.801624    35.462339    44.428433
H     52.391884    36.112472    45.130533
H     53.532843    34.903295    44.911673
H     53.237331    36.075603    43.670272
C     50.919000    37.490000    39.432000
H     51.623808    37.110083    40.206095
O     51.649858    37.713221    38.230883
H     52.580106    37.995136    38.433278
C     49.859374    36.453407    39.078863
H     49.096542    36.875559    38.417153
H     50.322532    35.612865    38.546111
H     49.376962    36.060961    39.980264
Mg    56.541642    38.894450    42.254007
O     58.443168    38.417356    42.694419
H     58.927306    37.643240    42.266300
H     58.980844    39.223681    42.335368
H     52.276686    40.595866    36.252266
H     59.281679    39.844994    46.219662
H     48.460643    32.881339    42.781541
H     50.510479    38.453600    39.736444
78
frame=28 E_kcal=-1629.3513
C     52.079677    36.130781    48.237900
C     53.166907    37.091160    48.783859
C     53.862517    37.802005    47.595099
C     52.785928    38.500395    46.725678
C     53.322648    39.297017    45.530542
C     51.122623    36.921958    47.321555
O     50.265577    36.058154    46.660100
O     51.304482    35.581802    49.264616
O     54.113858    36.315790    49.458640
O     54.674942    38.803527    48.139001
O     51.889043    37.517895    46.256079
O     54.046556    38.457326    44.620925
H     52.528251    35.266444    47.707505
H     52.742048    37.835451    49.490630
H     54.473034    37.099855    46.999734
H     52.207100    39.222609    47.340975
H     52.477770    39.784685    45.003274
H     54.015568    40.078253    45.903113
H     50.545179    37.712253    47.845451
H     49.453389    36.674742    46.329865
H     51.582710    35.912583    50.193991
H     53.938983    36.322360    50.497738
H     55.462884    39.002981    47.518953
H     55.118115    38.805764    44.636432
P     53.707650    38.321350    42.786639
O     52.597643    37.325803    42.784730
O     53.425962    39.712272    42.417843
O     55.043137    37.598926    42.724439
P     55.947350    38.751771    39.580527
O     57.301539    38.887595    40.306338
O     55.930858    37.659517    38.558928
O     54.867437    38.926353    40.649096
P     55.442655    40.984313    37.486932
O     55.845380    42.366219    37.929551
O     56.052158    40.328875    36.268420
O     55.342912    40.110095    38.836453
O     53.860241    41.269028    37.089972
C     53.300000    40.708000    35.894000
H     53.417270    41.391386    35.056625
H     53.690553    39.729877    35.579346
C     58.778000    39.640000    45.275000
H     58.946191    40.476954    44.585569
H     59.233726    38.735888    44.816972
C     57.280829    39.389154    45.405007
O     56.531993    39.386986    44.378411
O     56.777101    39.234004    46.533596
C     49.367000    33.471000    42.644000
H     50.204444    32.852452    42.992628
H     49.539076    33.659271    41.576811
C     49.271122    34.800113    43.391664
H     48.475663    35.433609    42.957370
H     48.987511    34.660342    44.453004
C     50.622175    35.501822    43.312988
H     50.840219    35.841765    42.281447
H     50.584726    36.430890    43.920118
C     51.738307    34.584494    43.822859
H     51.363698    33.870089    44.588964
H     52.190621    34.003003    42.982903
N     52.797612    35.444581    44.433633
H     52.388631    36.093648    45.137117
H     53.526886    34.882211    44.915344
H     53.234167    36.064520    43.677627
C     50.919000    37.490000    39.432000
H     51.621808    37.111317    40.208347
O     51.652441    37.714156    38.232504
H     52.580393    38.003177    38.437685
C     49.859907    36.453369    39.078730
H     49.096657    36.875201    38.417236
H     50.322870    35.612510    38.546341
H     49.377568    36.061336    39.980599
Mg    56.533546    38.891101    42.235238
O     58.435031    38.420890    42.691419
H     58.920758    37.647234    42.265480
H     58.974985    39.226073    42.333630
H     52.276686    40.595866    36.252266
H     59.281679    39.844994    46.219662
H     48.460643    32.881339    42.781541
H     50.510479    38.453600    39.736444
78
frame=29 E_kcal=-1629.5952
C     52.080110    36.131709    48.237301
C     53.167383    37.091328    48.784664
C     53.863288    37.803424    47.597517
C     52.786953    38.503474    46.730088
C     53.329879    39.309189    45.543349
C     51.124458    36.923883    47.319995
O     50.267854    36.059904    46.657711
O     51.304149    35.582936    49.263632
O     54.114010    36.315539    49.459278
O     54.676718    38.803960    48.142475
O     51.893022    37.519949    46.255854
O     54.063629    38.478225    44.633640
H     52.528284    35.267212    47.706866
H     52.741757    37.835595    49.491126
H     54.473066    37.102583    46.999783
H     52.203624    39.220941    47.346655
H     52.486128    39.798751    45.016066
H     54.018066    40.090147    45.926123
H     50.546126    37.713648    47.843954
H     49.454840    36.676384    46.328760
H     51.582607    35.913122    50.193098
H     53.938863    36.322619    50.498240
H     55.463531    39.003007    47.522346
H     55.142863    38.837625    44.644825
P     53.701519    38.331864    42.821310
O     52.585385    37.341964    42.844421
O     53.423993    39.715696    42.425661
O     55.033006    37.603762    42.721688
P     55.948157    38.750175    39.570292
O     57.302444    38.874087    40.297880
O     55.926996    37.656036    38.551388
O     54.865546    38.938409    40.632783
P     55.448355    40.984773    37.475573
O     55.848504    42.367254    37.918962
O     56.052071    40.330614    36.253404
O     55.354229    40.110508    38.824410
O     53.863367    41.267586    37.088212
C     53.300000    40.708000    35.894000
H     53.415964    41.391069    35.055961
H     53.688322    39.729148    35.578160
C     58.778000    39.640000    45.275000
H     58.945090    40.477601    44.585929
H     59.234388    38.737045    44.815536
C     57.280551    39.388673    45.405801
O     56.527920    39.388144    44.379741
O     56.777219    39.231965    46.533576
C     49.367000    33.471000    42.644000
H     50.203111    32.851113    42.992811
H     49.539565    33.659122    41.576848
C     49.268854    34.800319    43.390935
H     48.475531    35.434496    42.954202
H     48.981300    34.661236    44.451343
C     50.621676    35.498161    43.316148
H     50.842859    35.842870    42.287054
H     50.588354    36.424574    43.928731
C     51.731622    34.571066    43.821533
H     51.351338    33.853591    44.582435
H     52.181941    33.990965    42.979617
N     52.792180    35.422592    44.439891
H     52.383909    36.066073    45.148980
H     53.519771    34.853776    44.916858
H     53.229667    36.052265    43.692731
C     50.919000    37.490000    39.432000
H     51.621040    37.111718    40.209233
O     51.652882    37.716234    38.233188
H     52.579147    38.010478    38.439054
C     49.860591    36.453164    39.077923
H     49.097231    36.874754    38.416289
H     50.323823    35.612329    38.545684
H     49.378052    36.061244    39.979838
Mg    56.520959    38.889707    42.219044
O     58.424934    38.425583    42.686409
H     58.912151    37.651950    42.263139
H     58.966638    39.230799    42.331597
H     52.276686    40.595866    36.252266
H     59.281679    39.844994    46.219662
H     48.460643    32.881339    42.781541
H     50.510479    38.453600    39.736444
78
frame=30 E_kcal=-1629.7558
C     52.082042    36.131996    48.236749
C     53.168433    37.090799    48.787371
C     53.864888    37.804635    47.601900
C     52.789630    38.507204    46.735161
C     53.338295    39.323442    45.557375
C     51.128720    36.926080    47.317840
O     50.273102    36.062715    46.653092
O     51.304943    35.582575    49.262007
O     54.114263    36.313834    49.461576
O     54.680343    38.802619    48.148731
O     51.899717    37.522569    46.255585
O     54.081777    38.503164    44.646428
H     52.530099    35.267356    47.706501
H     52.741594    37.833590    49.494891
H     54.473123    37.104700    47.001250
H     52.201676    39.219594    47.352974
H     52.497677    39.819580    45.030633
H     54.021625    40.101255    45.955681
H     50.548612    37.714402    47.841878
H     49.458605    36.678715    46.326829
H     51.578264    35.917358    50.191306
H     53.939541    36.321441    50.500970
H     55.464813    39.002731    47.527261
H     55.169259    38.876533    44.649959
P     53.699190    38.336838    42.853572
O     52.582569    37.348696    42.887607
O     53.424587    39.716394    42.433888
O     55.026158    37.603640    42.726192
P     55.944536    38.749820    39.563865
O     57.297974    38.864470    40.294666
O     55.923445    37.657712    38.543174
O     54.859303    38.942884    40.621991
P     55.452126    40.984280    37.466697
O     55.851946    42.367106    37.908659
O     56.051249    40.329054    36.243073
O     55.359911    40.112698    38.816931
O     53.865269    41.265845    37.087247
C     53.300000    40.708000    35.894000
H     53.414896    41.391246    35.055821
H     53.686265    39.728787    35.576337
C     58.778000    39.640000    45.275000
H     58.944884    40.478317    44.586440
H     59.233876    38.737205    44.814098
C     57.282291    39.389704    45.411646
O     56.526727    39.393846    44.385241
O     56.780248    39.231073    46.538877
C     49.367000    33.471000    42.644000
H     50.201597    32.849728    42.993247
H     49.540291    33.658593    41.576835
C     49.266168    34.800987    43.389377
H     48.475796    35.436030    42.948591
H     48.973736    34.663222    44.448659
C     50.620760    35.495103    43.319558
H     50.844354    35.846286    42.293411
H     50.591311    36.417675    43.938969
C     51.725527    34.558928    43.819162
H     51.340380    33.837211    44.573933
H     52.174368    33.981859    42.974478
N     52.786015    35.402187    44.446819
H     52.376863    36.035858    45.164428
H     53.514421    34.826576    44.914875
H     53.223122    36.045021    43.709061
C     50.919000    37.490000    39.432000
H     51.622689    37.111635    40.207498
O     51.652082    37.716616    38.232675
H     52.577016    38.015286    38.437580
C     49.861240    36.452881    39.076950
H     49.098403    36.874319    38.414612
H     50.325308    35.612664    38.544418
H     49.377927    36.060122    39.977953
Mg    56.505316    38.884557    42.208424
O     58.412574    38.431496    42.682035
H     58.900411    37.659164    42.259223
H     58.955121    39.235962    42.327420
H     52.276686    40.595866    36.252266
H     59.281679    39.844994    46.219662
H     48.460643    32.881339    42.781541
H     50.510479    38.453600    39.736444
78
frame=31 E_kcal=-1629.8870
C     52.084504    36.131905    48.236311
C     53.170215    37.089286    48.790403
C     53.867253    37.804929    47.606498
C     52.793866    38.510224    46.739596
C     53.347483    39.336472    45.570384
C     51.134236    36.927550    47.315081
O     50.279310    36.065176    46.647713
O     51.304629    35.582471    49.259626
O     54.115389    36.311141    49.464134
O     54.683038    38.801325    48.155956
O     51.907384    37.524849    46.254803
O     54.095297    38.525206    44.656523
H     52.533752    35.267701    47.706934
H     52.742660    37.829926    49.499518
H     54.474901    37.105073    47.004939
H     52.202454    39.218899    47.358094
H     52.509950    39.843205    45.048850
H     54.032681    40.108008    45.978762
H     50.553584    37.715119    47.839264
H     49.464727    36.681568    46.322646
H     51.571881    35.922475    50.188525
H     53.940465    36.319027    50.504030
H     55.467808    39.001456    47.536507
H     55.190161    38.913160    44.650640
P     53.700298    38.339720    42.883187
O     52.582936    37.350678    42.926969
O     53.425461    39.711891    42.442565
O     55.026151    37.603080    42.742157
P     55.937926    38.749455    39.560751
O     57.290187    38.860986    40.294899
O     55.921233    37.659831    38.537515
O     54.848819    38.939359    40.614414
P     55.453203    40.983883    37.463101
O     55.853626    42.367522    37.901526
O     56.050104    40.326088    36.239859
O     55.360040    40.115551    38.815176
O     53.865678    41.264397    37.087229
C     53.300000    40.708000    35.894000
H     53.414185    41.391785    35.056108
H     53.685623    39.728887    35.575037
C     58.778000    39.640000    45.275000
H     58.943914    40.477713    44.585399
H     59.231488    38.736834    44.812376
C     57.282894    39.392624    45.419863
O     56.523500    39.403997    44.394035
O     56.783844    39.232060    46.547375
C     49.367000    33.471000    42.644000
H     50.200526    32.849368    42.994677
H     49.541598    33.657304    41.576814
C     49.263407    34.802137    43.386907
H     48.476131    35.437311    42.940950
H     48.965193    34.666282    44.444794
C     50.619271    35.493857    43.322949
H     50.844593    35.852258    42.299786
H     50.591805    36.412235    43.949503
C     51.720685    34.549960    43.816148
H     51.332180    33.822213    44.563603
H     52.170489    33.979997    42.967143
N     52.780277    35.385539    44.453559
H     52.371156    36.007465    45.180642
H     53.511883    34.806652    44.912157
H     53.214181    36.043035    43.723210
C     50.919000    37.490000    39.432000
H     51.623979    37.112020    40.206268
O     51.650519    37.717019    38.231770
H     52.575193    38.017429    38.434193
C     49.861832    36.452510    39.076169
H     49.099543    36.874066    38.413203
H     50.326944    35.613070    38.543221
H     49.377715    36.058726    39.976209
Mg    56.492931    38.876712    42.200940
O     58.401122    38.438285    42.678492
H     58.886382    37.665879    42.255130
H     58.942805    39.243484    42.322946
H     52.276686    40.595866    36.252266
H     59.281679    39.844994    46.219662
H     48.460643    32.881339    42.781541
H     50.510479    38.453600    39.736444
78
frame=32 E_kcal=-1629.9622
C     52.086627    36.132357    48.235453
C     53.172120    37.087779    48.793021
C     53.870825    37.805273    47.611639
C     52.799186    38.513378    46.745044
C     53.357425    39.347439    45.583368
C     51.139742    36.929900    47.311918
O     50.285860    36.068207    46.641996
O     51.302284    35.584777    49.256537
O     54.116296    36.307471    49.465637
O     54.686552    38.800007    48.164658
O     51.915874    37.527852    46.254283
O     54.105771    38.541075    44.666818
H     52.536246    35.267104    47.708170
H     52.744522    37.827298    49.503389
H     54.479026    37.106294    47.009509
H     52.204193    39.217805    47.364353
H     52.522515    39.864518    45.067341
H     54.048776    40.110670    45.997962
H     50.558241    37.716724    47.836436
H     49.471028    36.684125    46.317536
H     51.568435    35.923106    50.185942
H     53.941849    36.315741    50.505640
H     55.471728    39.000560    47.547710
H     55.207894    38.937310    44.655890
P     53.699364    38.342646    42.908622
O     52.581210    37.354961    42.960823
O     53.424413    39.708908    42.444750
O     55.023768    37.604879    42.756931
P     55.929504    38.747147    39.559441
O     57.281275    38.862001    40.294515
O     55.919822    37.659590    38.534219
O     54.837690    38.929736    40.610593
P     55.451878    40.983989    37.464041
O     55.853055    42.367689    37.900963
O     56.049945    40.324679    36.242413
O     55.355812    40.116408    38.816487
O     53.864712    41.264443    37.087670
C     53.300000    40.708000    35.894000
H     53.414205    41.392409    35.056592
H     53.686176    39.729256    35.574728
C     58.778000    39.640000    45.275000
H     58.942625    40.476439    44.583403
H     59.227692    38.735291    44.811643
C     57.283235    39.396882    45.426766
O     56.520799    39.415702    44.401589
O     56.785784    39.234061    46.554071
C     49.367000    33.471000    42.644000
H     50.199619    32.849801    42.997305
H     49.543661    33.655110    41.576810
C     49.260587    34.803608    43.383862
H     48.476320    35.438499    42.932196
H     48.956235    34.669955    44.440243
C     50.617364    35.493909    43.326431
H     50.844385    35.860036    42.306551
H     50.590793    36.407764    43.960033
C     51.717399    34.544690    43.812667
H     51.327148    33.809011    44.551348
H     52.168729    33.983744    42.958554
N     52.775405    35.373439    44.460157
H     52.366201    35.984729    45.195794
H     53.510408    34.791039    44.908692
H     53.206908    36.043951    43.737760
C     50.919000    37.490000    39.432000
H     51.624439    37.112925    40.206303
O     51.649285    37.717211    38.231042
H     52.574108    38.017654    38.431895
C     49.862358    36.452113    39.075852
H     49.100105    36.873588    38.412713
H     50.327986    35.613097    38.542590
H     49.378113    36.057826    39.975532
Mg    56.481920    38.872184    42.195957
O     58.392578    38.445034    42.677347
H     58.876250    37.673353    42.252607
H     58.933863    39.250000    42.319281
H     52.276686    40.595866    36.252266
H     59.281679    39.844994    46.219662
H     48.460643    32.881339    42.781541
H     50.510479    38.453600    39.736444
78
frame=33 E_kcal=-1630.0232
C     52.087482    36.133441    48.234993
C     53.174127    37.085964    48.795549
C     53.875294    37.805707    47.617265
C     52.805013    38.516595    46.751724
C     53.368420    39.355960    45.596551
C     51.144383    36.932910    47.309084
O     50.292601    36.071911    46.635082
O     51.298912    35.588073    49.254334
O     54.116484    36.302487    49.467023
O     54.691350    38.798583    48.173460
O     51.924150    37.531876    46.254996
O     54.112637    38.551874    44.675244
H     52.536229    35.267074    47.709032
H     52.746673    37.824663    49.507004
H     54.484157    37.108998    47.013444
H     52.207173    39.217389    47.371785
H     52.537590    39.882032    45.083796
H     54.063647    40.112211    46.018311
H     50.561067    37.718904    47.832852
H     49.476143    36.686964    46.313615
H     51.568788    35.920710    50.184494
H     53.943579    36.312527    50.507263
H     55.476632    39.002050    47.558259
H     55.218146    38.947938    44.661035
P     53.695728    38.348728    42.923973
O     52.576083    37.362654    42.989478
O     53.421304    39.709973    42.447407
O     55.018014    37.607111    42.763381
P     55.923071    38.744078    39.558761
O     57.273860    38.864319    40.294973
O     55.919241    37.658636    38.531382
O     54.828151    38.917820    40.607379
P     55.449462    40.984463    37.467857
O     55.852024    42.366729    37.907949
O     56.050427    40.326202    36.247124
O     55.347490    40.113641    38.817889
O     53.863617    41.266327    37.087570
C     53.300000    40.708000    35.894000
H     53.414532    41.392251    35.056485
H     53.687154    39.729469    35.575414
C     58.778000    39.640000    45.275000
H     58.944124    40.474771    44.581900
H     59.224793    38.733283    44.812615
C     57.283918    39.399985    45.431001
O     56.521063    39.422051    44.405522
O     56.786894    39.236103    46.558058
C     49.367000    33.471000    42.644000
H     50.198404    32.850188    43.000662
H     49.546346    33.652577    41.576901
C     49.258130    34.805344    43.380620
H     48.476772    35.439932    42.923286
H     48.947530    34.673694    44.435428
C     50.615393    35.495336    43.329635
H     50.843115    35.869611    42.312909
H     50.588634    36.404249    43.971004
C     51.715488    34.542251    43.808133
H     51.325113    33.798934    44.539347
H     52.168211    33.990187    42.948971
N     52.771551    35.365122    44.465498
H     52.361006    35.966738    45.207934
H     53.507444    34.778613    44.907505
H     53.202573    36.046925    43.752672
C     50.919000    37.490000    39.432000
H     51.624833    37.113617    40.206212
O     51.649401    37.716482    38.230830
H     52.574268    38.017007    38.432011
C     49.862630    36.451706    39.076441
H     49.100082    36.872735    38.413358
H     50.328289    35.612879    38.542900
H     49.378787    36.057187    39.976299
Mg    56.473256    38.871129    42.193283
O     58.386064    38.450447    42.675965
H     58.871028    37.679443    42.253154
H     58.927285    39.255981    42.318492
H     52.276686    40.595866    36.252266
H     59.281679    39.844994    46.219662
H     48.460643    32.881339    42.781541
H     50.510479    38.453600    39.736444
78
frame=34 E_kcal=-1630.0542
C     52.088342    36.135116    48.234690
C     53.176750    37.084235    48.797977
C     53.880032    37.806033    47.622369
C     52.810586    38.519267    46.757524
C     53.377549    39.362749    45.607451
C     51.147902    36.936094    47.307213
O     50.298093    36.075873    46.629220
O     51.296944    35.591616    49.253007
O     54.116338    36.296885    49.468954
O     54.695943    38.797872    48.180980
O     51.931083    37.535787    46.256261
O     54.114995    38.557246    44.682021
H     52.535335    35.267660    47.709014
H     52.749557    37.821280    49.511354
H     54.489208    37.110330    47.017517
H     52.212024    39.217904    47.378432
H     52.550846    39.898774    45.098434
H     54.079177    40.110820    46.033932
H     50.562238    37.721128    47.829771
H     49.480199    36.690426    46.310012
H     51.569839    35.919149    50.184044
H     53.945081    36.309739    50.509921
H     55.481010    39.002924    47.566798
H     55.221374    38.950982    44.662585
P     53.690445    38.353286    42.935367
O     52.569856    37.369884    43.010808
O     53.417934    39.714102    42.454405
O     55.010472    37.609736    42.764528
P     55.918273    38.741037    39.558236
O     57.267696    38.865759    40.296284
O     55.920983    37.657390    38.529028
O     54.820047    38.907648    40.603831
P     55.446900    40.985686    37.472131
O     55.851902    42.365135    37.918756
O     56.051177    40.330076    36.251643
O     55.337651    40.108541    38.817618
O     53.862986    41.271049    37.086083
C     53.300000    40.708000    35.894000
H     53.414500    41.390930    35.055332
H     53.688336    39.729340    35.577590
C     58.778000    39.640000    45.275000
H     58.946508    40.473207    44.580839
H     59.224194    38.731896    44.814334
C     57.284105    39.400864    45.431605
O     56.521762    39.421196    44.405611
O     56.786461    39.238819    46.558790
C     49.367000    33.471000    42.644000
H     50.197262    32.850653    43.004154
H     49.549156    33.650084    41.576992
C     49.255969    34.806967    43.377375
H     48.477331    35.441191    42.914858
H     48.940022    34.677329    44.430823
C     50.613143    35.497608    43.332128
H     50.840526    35.880977    42.318803
H     50.585554    36.401196    43.981400
C     51.714288    34.542169    43.803172
H     51.324389    33.792007    44.527714
H     52.168523    33.998596    42.939429
N     52.767577    35.360633    44.470119
H     52.354441    35.954607    45.216973
H     53.503709    34.771396    44.908305
H     53.198742    36.051119    43.765762
C     50.919000    37.490000    39.432000
H     51.624729    37.113795    40.206461
O     51.649790    37.716127    38.231070
H     52.574844    38.015881    38.433191
C     49.862707    36.451314    39.077486
H     49.099390    36.871879    38.415023
H     50.328226    35.612263    38.544172
H     49.379653    36.057005    39.977945
Mg    56.467142    38.871002    42.192977
O     58.381902    38.453801    42.676862
H     58.868306    37.683717    42.254637
H     58.920955    39.260474    42.318413
H     52.276686    40.595866    36.252266
H     59.281679    39.844994    46.219662
H     48.460643    32.881339    42.781541
H     50.510479    38.453600    39.736444
78
frame=35 E_kcal=-1630.0692
C     52.089094    36.136433    48.234904
C     53.178691    37.082832    48.800688
C     53.883293    37.805522    47.626775
C     52.815188    38.521510    46.762504
C     53.385612    39.366730    45.615594
C     51.150681    36.939156    47.306830
O     50.302273    36.079644    46.625953
O     51.295923    35.593592    49.252283
O     54.116839    36.292746    49.470551
O     54.700457    38.795657    48.186464
O     51.935406    37.540120    46.257853
O     54.115920    38.559418    44.686145
H     52.535454    35.268726    47.708870
H     52.752912    37.819315    49.515660
H     54.493010    37.110252    47.021955
H     52.216343    39.218794    47.384275
H     52.562064    39.912864    45.112263
H     54.095690    40.106788    46.042045
H     50.563895    37.723555    47.829071
H     49.484128    36.694149    46.307103
H     51.569520    35.920660    50.183336
H     53.946303    36.306779    50.511889
H     55.483762    39.002169    47.570667
H     55.223772    38.950215    44.663589
P     53.685434    38.356427    42.942963
O     52.564265    37.373487    43.022293
O     53.414108    39.716918    42.462049
O     55.003709    37.610317    42.766331
P     55.913610    38.738542    39.558249
O     57.261527    38.866256    40.298676
O     55.921760    37.655258    38.528772
O     54.811965    38.901016    40.600360
P     55.444942    40.987119    37.475263
O     55.851683    42.364132    37.927795
O     56.052058    40.333871    36.254917
O     55.329139    40.103688    38.816208
O     53.863472    41.278099    37.082776
C     53.300000    40.708000    35.894000
H     53.413752    41.388219    35.052900
H     53.690006    39.728812    35.581503
C     58.778000    39.640000    45.275000
H     58.946464    40.472703    44.580100
H     59.224882    38.731692    44.815352
C     57.284167    39.400903    45.430560
O     56.522587    39.418161    44.403868
O     56.784961    39.242030    46.557493
C     49.367000    33.471000    42.644000
H     50.196592    32.851605    43.007245
H     49.551535    33.647702    41.577069
C     49.253500    34.808536    43.374309
H     48.476596    35.441749    42.907387
H     48.933572    34.680444    44.426723
C     50.610080    35.500669    43.334326
H     50.837320    35.891990    42.324068
H     50.581063    36.399598    43.990392
C     51.712763    34.543912    43.799145
H     51.323692    33.786578    44.516655
H     52.169783    34.009010    42.931511
N     52.762699    35.359796    44.474370
H     52.346394    35.948083    45.223668
H     53.499647    34.769749    44.910027
H     53.193737    36.056422    43.775255
C     50.919000    37.490000    39.432000
H     51.624546    37.114203    40.206912
O     51.649824    37.715994    38.231262
H     52.575196    38.014695    38.433649
C     49.862645    36.451007    39.078744
H     49.098667    36.871029    38.416753
H     50.327753    35.611640    38.545662
H     49.380464    36.057215    39.979976
Mg    56.461421    38.869368    42.193558
O     58.378575    38.456056    42.677792
H     58.865443    37.686565    42.255931
H     58.917706    39.262322    42.319023
H     52.276686    40.595866    36.252266
H     59.281679    39.844994    46.219662
H     48.460643    32.881339    42.781541
H     50.510479    38.453600    39.736444
78
frame=36 E_kcal=-1630.0692
C     52.089094    36.136433    48.234904
C     53.178691    37.082832    48.800688
C     53.883293    37.805522    47.626775
C     52.815188    38.521510    46.762504
C     53.385612    39.366730    45.615594
C     51.150681    36.939156    47.306830
O     50.302273    36.079644    46.625953
O     51.295923    35.593592    49.252283
O     54.116839    36.292746    49.470551
O     54.700457    38.795657    48.186464
O     51.935406    37.540120    46.257853
O     54.115920    38.559418    44.686145
H     52.535454    35.268726    47.708870
H     52.752912    37.819315    49.515660
H     54.493010    37.110252    47.021955
H     52.216343    39.218794    47.384275
H     52.562064    39.912864    45.112263
H     54.095690    40.106788    46.042045
H     50.563895    37.723555    47.829071
H     49.484128    36.694149    46.307103
H     51.569520    35.920660    50.183336
H     53.946303    36.306779    50.511889
H     55.483762    39.002169    47.570667
H     55.223772    38.950215    44.663589
P     53.685434    38.356427    42.942963
O     52.564265    37.373487    43.022293
O     53.414108    39.716918    42.462049
O     55.003709    37.610317    42.766331
P     55.913610    38.738542    39.558249
O     57.261527    38.866256    40.298676
O     55.921760    37.655258    38.528772
O     54.811965    38.901016    40.600360
P     55.444942    40.987119    37.475263
O     55.851683    42.364132    37.927795
O     56.052058    40.333871    36.254917
O     55.329139    40.103688    38.816208
O     53.863472    41.278099    37.082776
C     53.300000    40.708000    35.894000
H     53.413752    41.388219    35.052900
H     53.690006    39.728812    35.581503
C     58.778000    39.640000    45.275000
H     58.946464    40.472703    44.580100
H     59.224882    38.731692    44.815352
C     57.284167    39.400903    45.430560
O     56.522587    39.418161    44.403868
O     56.784961    39.242030    46.557493
C     49.367000    33.471000    42.644000
H     50.196592    32.851605    43.007245
H     49.551535    33.647702    41.577069
C     49.253500    34.808536    43.374309
H     48.476596    35.441749    42.907387
H     48.933572    34.680444    44.426723
C     50.610080    35.500669    43.334326
H     50.837320    35.891990    42.324068
H     50.581063    36.399598    43.990392
C     51.712763    34.543912    43.799145
H     51.323692    33.786578    44.516655
H     52.169783    34.009010    42.931511
N     52.762699    35.359796    44.474370
H     52.346394    35.948083    45.223668
H     53.499647    34.769749    44.910027
H     53.193737    36.056422    43.775255
C     50.919000    37.490000    39.432000
H     51.624546    37.114203    40.206912
O     51.649824    37.715994    38.231262
H     52.575196    38.014695    38.433649
C     49.862645    36.451007    39.078744
H     49.098667    36.871029    38.416753
H     50.327753    35.611640    38.545662
H     49.380464    36.057215    39.979976
Mg    56.461421    38.869368    42.193558
O     58.378575    38.456056    42.677792
H     58.865443    37.686565    42.255931
H     58.917706    39.262322    42.319023
H     52.276686    40.595866    36.252266
H     59.281679    39.844994    46.219662
H     48.460643    32.881339    42.781541
H     50.510479    38.453600    39.736444
78
frame=37 E_kcal=-1630.0692
C     52.089094    36.136433    48.234904
C     53.178691    37.082832    48.800688
C     53.883293    37.805522    47.626775
C     52.815188    38.521510    46.762504
C     53.385612    39.366730    45.615594
C     51.150681    36.939156    47.306830
O     50.302273    36.079644    46.625953
O     51.295923    35.593592    49.252283
O     54.116839    36.292746    49.470551
O     54.700457    38.795657    48.186464
O     51.935406    37.540120    46.257853
O     54.115920    38.559418    44.686145
H     52.535454    35.268726    47.708870
H     52.752912    37.819315    49.515660
H     54.493010    37.110252    47.021955
H     52.216343    39.218794    47.384275
H     52.562064    39.912864    45.112263
H     54.095690    40.106788    46.042045
H     50.563895    37.723555    47.829071
H     49.484128    36.694149    46.307103
H     51.569520    35.920660    50.183336
H     53.946303    36.306779    50.511889
H     55.483762    39.002169    47.570667
H     55.223772    38.950215    44.663589
P     53.685434    38.356427    42.942963
O     52.564265    37.373487    43.022293
O     53.414108    39.716918    42.462049
O     55.003709    37.610317    42.766331
P     55.913610    38.738542    39.558249
O     57.261527    38.866256    40.298676
O     55.921760    37.655258    38.528772
O     54.811965    38.901016    40.600360
P     55.444942    40.987119    37.475263
O     55.851683    42.364132    37.927795
O     56.052058    40.333871    36.254917
O     55.329139    40.103688    38.816208
O     53.863472    41.278099    37.082776
C     53.300000    40.708000    35.894000
H     53.413752    41.388219    35.052900
H     53.690006    39.728812    35.581503
C     58.778000    39.640000    45.275000
H     58.946464    40.472703    44.580100
H     59.224882    38.731692    44.815352
C     57.284167    39.400903    45.430560
O     56.522587    39.418161    44.403868
O     56.784961    39.242030    46.557493
C     49.367000    33.471000    42.644000
H     50.196592    32.851605    43.007245
H     49.551535    33.647702    41.577069
C     49.253500    34.808536    43.374309
H     48.476596    35.441749    42.907387
H     48.933572    34.680444    44.426723
C     50.610080    35.500669    43.334326
H     50.837320    35.891990    42.324068
H     50.581063    36.399598    43.990392
C     51.712763    34.543912    43.799145
H     51.323692    33.786578    44.516655
H     52.169783    34.009010    42.931511
N     52.762699    35.359796    44.474370
H     52.346394    35.948083    45.223668
H     53.499647    34.769749    44.910027
H     53.193737    36.056422    43.775255
C     50.919000    37.490000    39.432000
H     51.624546    37.114203    40.206912
O     51.649824    37.715994    38.231262
H     52.575196    38.014695    38.433649
C     49.862645    36.451007    39.078744
H     49.098667    36.871029    38.416753
H     50.327753    35.611640    38.545662
H     49.380464    36.057215    39.979976
Mg    56.461421    38.869368    42.193558
O     58.378575    38.456056    42.677792
H     58.865443    37.686565    42.255931
H     58.917706    39.262322    42.319023
H     52.276686    40.595866    36.252266
H     59.281679    39.844994    46.219662
H     48.460643    32.881339    42.781541
H     50.510479    38.453600    39.736444
