78
frame=0 E_kcal=-1643.4587
C     52.046912    36.088843    48.302220
C     53.125923    37.061592    48.850251
C     53.783746    37.790558    47.659047
C     52.685923    38.492021    46.818454
C     53.272004    39.117499    45.546341
C     51.047845    36.875354    47.430835
O     50.193065    36.009004    46.765980
O     51.311993    35.495570    49.332082
O     54.102260    36.289755    49.487865
O     54.639706    38.776826    48.165280
O     51.765167    37.519435    46.366820
O     54.160090    38.173807    45.024946
H     52.504721    35.249991    47.738662
H     52.702818    37.784403    49.579274
H     54.369653    37.081196    47.037504
H     52.130581    39.252291    47.381188
H     52.493804    39.302886    44.783534
H     53.789891    40.063285    45.784269
H     50.462458    37.637717    47.986394
H     49.407612    36.631178    46.396832
H     51.566803    35.866376    50.256811
H     53.951470    36.298240    50.533582
H     55.410656    38.959056    47.521652
H     55.065182    38.608114    44.863811
P     54.012847    38.267272    41.821083
O     52.650788    37.688718    41.659916
O     54.264167    39.660971    42.351588
O     54.964765    37.274160    42.522641
P     55.818958    38.718351    39.474401
O     56.958134    38.947673    40.445073
O     55.930439    37.721709    38.376982
O     54.435226    38.340939    40.202149
P     55.425510    40.993765    37.471016
O     55.832930    42.353997    37.960141
O     56.040508    40.342679    36.265832
O     55.573477    40.232525    38.891136
O     53.845298    41.224039    37.121433
C     53.300000    40.708000    35.894000
H     53.422656    41.407921    35.073394
H     53.679618    39.731194    35.560629
C     58.778000    39.640000    45.275000
H     58.898725    40.483469    44.585235
H     59.224374    38.746044    44.796347
C     57.285107    39.378907    45.497786
O     56.484934    39.417843    44.517803
O     56.814592    39.203135    46.636420
C     49.367000    33.471000    42.644000
H     50.224761    32.827315    42.892825
H     49.467826    33.727232    41.580344
C     49.395755    34.753290    43.479143
H     48.545934    35.404052    43.191254
H     49.243793    34.544642    44.554701
C     50.710181    35.523481    43.293883
H     50.875329    35.776554    42.227586
H     50.596019    36.495258    43.810319
C     51.936667    34.802770    43.859427
H     51.657610    34.152944    44.722179
H     52.414467    34.161320    43.080919
N     52.946550    35.824224    44.333710
H     52.503906    36.524612    44.961811
H     53.696263    35.367457    44.900609
H     53.393704    36.345791    43.548631
C     50.919000    37.490000    39.432000
H     51.616618    37.059535    40.186034
O     51.653042    37.733152    38.232858
H     52.598034    37.945412    38.456279
C     49.843361    36.472596    39.053298
H     49.085554    36.916987    38.403136
H     50.300185    35.640698    38.503632
H     49.361094    36.067242    39.948662
Mg    56.306501    38.826104    42.628091
O     58.305431    38.474188    42.619925
H     58.792708    37.686767    42.274002
H     58.830618    39.273108    42.270578
H     52.276686    40.595866    36.252266
H     59.281679    39.844994    46.219662
H     48.460643    32.881339    42.781541
H     50.510479    38.453600    39.736444
78
frame=1 E_kcal=-1642.7688
C     52.049708    36.088677    48.298985
C     53.131296    37.061543    48.839232
C     53.794247    37.784295    47.643805
C     52.701520    38.482902    46.796920
C     53.263459    39.117377    45.516633
C     51.053427    36.875922    47.425349
O     50.193580    36.009477    46.767491
O     51.313087    35.499906    49.330193
O     54.104622    36.292661    49.484477
O     54.639572    38.776658    48.155782
O     51.772760    37.512333    46.357780
O     54.118831    38.191158    44.912340
H     52.504181    35.246779    47.737615
H     52.709147    37.790159    49.563173
H     54.386709    37.075651    47.030327
H     52.153968    39.250385    47.363979
H     52.457183    39.339628    44.794114
H     53.797778    40.052604    45.758637
H     50.472983    37.644036    47.976720
H     49.408393    36.631081    46.397551
H     51.568175    35.866729    50.256348
H     53.948686    36.302423    50.529073
H     55.417939    38.960280    47.520871
H     55.044605    38.604597    44.819861
P     54.013041    38.269791    41.889322
O     52.659617    37.682420    41.701224
O     54.261407    39.670171    42.390368
O     54.980531    37.278362    42.563531
P     55.803821    38.711614    39.492732
O     56.955893    38.944716    40.452084
O     55.928622    37.719971    38.391004
O     54.435389    38.344681    40.241152
P     55.424584    40.988222    37.479487
O     55.836645    42.348300    37.966444
O     56.039489    40.338531    36.272310
O     55.560405    40.227040    38.901257
O     53.845079    41.224109    37.122044
C     53.300000    40.708000    35.894000
H     53.425742    41.408128    35.073669
H     53.682344    39.731774    35.561515
C     58.778000    39.640000    45.275000
H     58.904006    40.483147    44.586606
H     59.222607    38.745334    44.794606
C     57.283594    39.377513    45.492460
O     56.479281    39.416252    44.516039
O     56.816401    39.195711    46.632080
C     49.367000    33.471000    42.644000
H     50.224020    32.827462    42.894566
H     49.467955    33.726602    41.580556
C     49.395638    34.753649    43.478001
H     48.546092    35.404017    43.190263
H     49.245303    34.545936    44.553928
C     50.710786    35.521165    43.289317
H     50.877753    35.769304    42.222231
H     50.600582    36.495884    43.801344
C     51.934454    34.797807    43.857627
H     51.652490    34.146043    44.717694
H     52.415711    34.158449    43.079384
N     52.941489    35.816941    44.339883
H     52.495854    36.515973    44.968497
H     53.691043    35.359273    44.905965
H     53.390614    36.343611    43.560348
C     50.919000    37.490000    39.432000
H     51.618032    37.065008    40.187355
O     51.652638    37.732949    38.232915
H     52.597802    37.946059    38.453806
C     49.843885    36.473131    39.051000
H     49.086097    36.919473    38.401363
H     50.300151    35.641976    38.499323
H     49.360611    36.066040    39.944714
Mg    56.324490    38.835346    42.618927
O     58.317991    38.473065    42.639470
H     58.784388    37.685978    42.261263
H     58.834952    39.268016    42.264499
H     52.276686    40.595866    36.252266
H     59.281679    39.844994    46.219662
H     48.460643    32.881339    42.781541
H     50.510479    38.453600    39.736444
78
frame=2 E_kcal=-1640.6576
C     52.057581    36.090637    48.286145
C     53.142062    37.062989    48.819076
C     53.810373    37.781693    47.622271
C     52.719094    38.477309    46.771519
C     53.255552    39.126955    45.485981
C     51.064202    36.880580    47.411216
O     50.199079    36.015715    46.759349
O     51.319549    35.510332    49.321203
O     54.110158    36.297232    49.475385
O     54.643483    38.778607    48.144182
O     51.785735    37.508085    46.339816
O     54.077694    38.220045    44.805051
H     52.506261    35.242635    47.729089
H     52.720538    37.801664    49.533552
H     54.409031    37.077655    47.013149
H     52.175964    39.240929    47.352577
H     52.425385    39.378572    44.799663
H     53.809766    40.048541    45.736594
H     50.491032    37.656963    47.959179
H     49.409542    36.637096    46.396695
H     51.577245    35.877764    50.245916
H     53.947018    36.308591    50.517514
H     55.428966    38.965146    47.514231
H     55.022766    38.600124    44.769888
P     54.010075    38.266336    41.959778
O     52.666664    37.663237    41.761117
O     54.255272    39.677042    42.422145
O     55.008668    37.281681    42.591743
P     55.787948    38.703446    39.510897
O     56.949013    38.946827    40.463453
O     55.929274    37.714472    38.407101
O     54.429868    38.348196    40.273943
P     55.419701    40.979212    37.493959
O     55.835298    42.340092    37.976056
O     56.041109    40.330801    36.290055
O     55.531298    40.219513    38.917689
O     53.844896    41.224000    37.122052
C     53.300000    40.708000    35.894000
H     53.427580    41.409634    35.075740
H     53.682774    39.732651    35.560884
C     58.778000    39.640000    45.275000
H     58.902764    40.483865    44.587820
H     59.225947    38.746431    44.796537
C     57.283970    39.373568    45.489553
O     56.479201    39.404802    44.514891
O     56.822963    39.192803    46.632236
C     49.367000    33.471000    42.644000
H     50.223708    32.827923    42.896490
H     49.468919    33.724769    41.580142
C     49.392881    34.755121    43.474998
H     48.544242    35.405663    43.186073
H     49.242496    34.550151    44.551551
C     50.710574    35.515747    43.282277
H     50.879820    35.757733    42.213978
H     50.607613    36.494618    43.787993
C     51.926610    34.783334    43.855286
H     51.636663    34.126624    44.708978
H     52.411547    34.147519    43.076304
N     52.931206    35.797190    44.349848
H     52.481534    36.494277    44.979417
H     53.678335    35.335893    44.915691
H     53.381796    36.326823    43.574643
C     50.919000    37.490000    39.432000
H     51.618358    37.071958    40.191747
O     51.654552    37.732370    38.234409
H     52.599563    37.946316    38.455840
C     49.845765    36.472492    39.050553
H     49.087119    36.919449    38.402065
H     50.302340    35.642960    38.496626
H     49.362803    36.063111    39.943248
Mg    56.346786    38.842965    42.597919
O     58.334035    38.469533    42.645930
H     58.795089    37.681312    42.260078
H     58.853761    39.266903    42.274907
H     52.276686    40.595866    36.252266
H     59.281679    39.844994    46.219662
H     48.460643    32.881339    42.781541
H     50.510479    38.453600    39.736444
78
frame=3 E_kcal=-1637.2421
C     52.065395    36.095704    48.271208
C     53.150427    37.068442    48.800162
C     53.823328    37.784585    47.601887
C     52.733996    38.475421    46.744850
C     53.251515    39.142232    45.458760
C     51.075666    36.886075    47.392684
O     50.206417    36.022675    46.745234
O     51.325815    35.520835    49.308462
O     54.114217    36.304553    49.465183
O     54.644177    38.786506    48.132186
O     51.801568    37.503686    46.317982
O     54.043843    38.260010    44.708543
H     52.511130    35.244263    47.717579
H     52.727558    37.811165    49.510095
H     54.429019    37.084206    46.997847
H     52.191176    39.235147    47.335992
H     52.401533    39.423183    44.808299
H     53.823449    40.049311    45.724072
H     50.507563    37.668201    47.938099
H     49.413483    36.645437    46.390106
H     51.585665    35.886638    50.232273
H     53.946035    36.315052    50.505335
H     55.438021    38.976820    47.510878
H     55.010135    38.596887    44.738877
P     54.012486    38.267932    42.037761
O     52.677262    37.641857    41.862892
O     54.264338    39.699350    42.410272
O     55.046219    37.296496    42.624249
P     55.757986    38.684046    39.528314
O     56.931131    38.947557    40.467662
O     55.928664    37.706272    38.417230
O     54.414681    38.323028    40.301331
P     55.414150    40.971841    37.507669
O     55.834342    42.332099    37.991258
O     56.043564    40.323400    36.305980
O     55.491537    40.205207    38.932009
O     53.841931    41.229824    37.120782
C     53.300000    40.708000    35.894000
H     53.428721    41.409712    35.075440
H     53.685031    39.732905    35.562475
C     58.778000    39.640000    45.275000
H     58.903685    40.485003    44.588821
H     59.227563    38.746077    44.797440
C     57.284044    39.373134    45.485340
O     56.479083    39.397461    44.511667
O     56.826652    39.196021    46.630592
C     49.367000    33.471000    42.644000
H     50.222928    32.829329    42.901968
H     49.472102    33.720347    41.579327
C     49.385503    34.758187    43.469165
H     48.539422    35.408520    43.173814
H     49.230936    34.558966    44.546403
C     50.707257    35.508551    43.274814
H     50.879980    35.745223    42.205917
H     50.615533    36.491146    43.775833
C     51.911767    34.759962    43.850990
H     51.613193    34.104827    44.702263
H     52.393317    34.120697    43.072666
N     52.922522    35.765512    44.345895
H     52.477172    36.465896    44.975943
H     53.668795    35.301304    44.909374
H     53.365329    36.290759    43.563996
C     50.919000    37.490000    39.432000
H     51.619279    37.082074    40.196060
O     51.655234    37.732533    38.235143
H     52.595736    37.964181    38.459509
C     49.849039    36.469925    39.052393
H     49.088385    36.915323    38.404763
H     50.306940    35.641732    38.497204
H     49.367495    36.058761    39.945097
Mg    56.376191    38.861822    42.576993
O     58.354275    38.464272    42.654233
H     58.813240    37.675196    42.263782
H     58.877119    39.260766    42.282418
H     52.276686    40.595866    36.252266
H     59.281679    39.844994    46.219662
H     48.460643    32.881339    42.781541
H     50.510479    38.453600    39.736444
78
frame=4 E_kcal=-1632.9744
C     52.070617    36.100377    48.258926
C     53.154763    37.074805    48.785075
C     53.832318    37.787838    47.585813
C     52.745875    38.472514    46.719451
C     53.248646    39.155334    45.434992
C     51.084818    36.889318    47.374586
O     50.212401    36.026026    46.732013
O     51.327846    35.530921    49.297144
O     54.116143    36.313553    49.456991
O     54.642340    38.795681    48.120771
O     51.816188    37.496587    46.296786
O     54.018849    38.294363    44.630615
H     52.516370    35.245863    47.710190
H     52.730402    37.821246    49.490241
H     54.446155    37.087811    46.991407
H     52.201006    39.230560    47.315421
H     52.386176    39.464155    44.814946
H     53.836268    40.049200    45.711633
H     50.520499    37.678348    47.914335
H     49.416295    36.648716    46.382425
H     51.590741    35.892853    50.220795
H     53.943203    36.323321    50.495315
H     55.440798    38.988020    47.503690
H     54.998615    38.598847    44.706481
P     54.009721    38.274676    42.125941
O     52.687682    37.622455    41.961851
O     54.260122    39.720801    42.417430
O     55.082055    37.313337    42.650659
P     55.737052    38.674151    39.540591
O     56.925792    38.944014    40.465185
O     55.926717    37.704294    38.423939
O     54.407643    38.327529    40.327371
P     55.410558    40.967827    37.519114
O     55.835312    42.327330    38.001415
O     56.043849    40.319650    36.318904
O     55.452039    40.195842    38.941113
O     53.843572    41.239428    37.115648
C     53.300000    40.708000    35.894000
H     53.427844    41.406543    35.072706
H     53.686769    39.732519    35.566785
C     58.778000    39.640000    45.275000
H     58.907714    40.484531    44.589211
H     59.228812    38.745327    44.799946
C     57.283580    39.373533    45.477420
O     56.481440    39.389899    44.501737
O     56.825607    39.201420    46.623682
C     49.367000    33.471000    42.644000
H     50.221797    32.831161    42.909582
H     49.476996    33.714473    41.578485
C     49.377882    34.762710    43.461723
H     48.535163    35.412520    43.156735
H     49.215979    34.569935    44.539354
C     50.703877    35.504624    43.270065
H     50.881179    35.740374    42.201700
H     50.621551    36.488386    43.770819
C     51.897137    34.740022    43.848376
H     51.588305    34.086663    44.697357
H     52.374088    34.097032    43.070146
N     52.915396    35.734197    44.347063
H     52.476094    36.432876    44.984629
H     53.662677    35.260744    44.901053
H     53.351126    36.264643    43.565469
C     50.919000    37.490000    39.432000
H     51.620817    37.091178    40.200270
O     51.655312    37.730747    38.235676
H     52.595992    37.964620    38.458490
C     49.852544    36.466131    39.055642
H     49.090221    36.908101    38.407388
H     50.312589    35.638748    38.500762
H     49.372260    36.054292    39.948615
Mg    56.403346    38.875506    42.550068
O     58.372099    38.458560    42.661311
H     58.829102    37.668828    42.265473
H     58.897263    39.255200    42.289176
H     52.276686    40.595866    36.252266
H     59.281679    39.844994    46.219662
H     48.460643    32.881339    42.781541
H     50.510479    38.453600    39.736444
78
frame=5 E_kcal=-1628.2350
C     52.075238    36.110690    48.243941
C     53.157464    37.086849    48.770285
C     53.838201    37.797154    47.570616
C     52.752548    38.475080    46.697149
C     53.255821    39.173586    45.421855
C     51.093195    36.893887    47.350310
O     50.221776    36.028557    46.709137
O     51.327598    35.547897    49.282645
O     54.116107    36.327294    49.448155
O     54.638185    38.811850    48.107277
O     51.830947    37.492846    46.271363
O     54.019843    38.326065    44.589516
H     52.524673    35.254623    47.700966
H     52.730913    37.833733    49.473623
H     54.456124    37.098556    46.977715
H     52.198872    39.231448    47.291623
H     52.389257    39.503685    44.819010
H     53.851357    40.058072    45.717754
H     50.527147    37.685779    47.884044
H     49.421243    36.650365    46.366876
H     51.594825    35.904037    50.206700
H     53.937072    36.332188    50.484180
H     55.442365    39.004962    47.496764
H     55.011309    38.616007    44.699908
P     53.998133    38.285835    42.236570
O     52.698902    37.586759    42.095961
O     54.220269    39.747853    42.409742
O     55.123207    37.347760    42.676773
P     55.713670    38.664037    39.550232
O     56.925375    38.944162    40.448303
O     55.923169    37.699919    38.431574
O     54.405808    38.333809    40.352315
P     55.406999    40.966693    37.532931
O     55.832590    42.326574    38.013710
O     56.046052    40.317147    36.335731
O     55.366529    40.173705    38.941239
O     53.848845    41.263980    37.102712
C     53.300000    40.708000    35.894000
H     53.425899    41.398353    35.064810
H     53.692903    39.731411    35.578686
C     58.778000    39.640000    45.275000
H     58.914198    40.483147    44.588505
H     59.229228    38.744373    44.802708
C     57.282628    39.380411    45.465197
O     56.489918    39.396915    44.482332
O     56.820193    39.213413    46.610381
C     49.367000    33.471000    42.644000
H     50.219232    32.834721    42.924779
H     49.487159    33.702583    41.577007
C     49.361771    34.770969    43.447372
H     48.526952    35.419697    43.120282
H     49.182639    34.591041    44.524931
C     50.695153    35.498949    43.266144
H     50.880284    35.739546    42.200305
H     50.626803    36.481239    43.773078
C     51.870644    34.705433    43.842449
H     51.547263    34.052574    44.686021
H     52.340072    34.059541    43.061294
N     52.900121    35.681539    44.348602
H     52.471329    36.369251    45.005932
H     53.655236    35.195246    44.880057
H     53.317076    36.228395    43.567049
C     50.919000    37.490000    39.432000
H     51.623252    37.100026    40.203319
O     51.654262    37.727701    38.235280
H     52.594185    37.970540    38.455842
C     49.857147    36.459567    39.062679
H     49.092303    36.894261    38.412113
H     50.321088    35.630867    38.512292
H     49.379094    36.050136    39.958092
Mg    56.443919    38.895862    42.509418
O     58.398751    38.448476    42.671745
H     58.857716    37.660010    42.269282
H     58.932943    39.242254    42.302335
H     52.276686    40.595866    36.252266
H     59.281679    39.844994    46.219662
H     48.460643    32.881339    42.781541
H     50.510479    38.453600    39.736444
78
frame=6 E_kcal=-1628.9951
C     52.075836    36.117711    48.245111
C     53.161064    37.083506    48.786402
C     53.847014    37.798293    47.595183
C     52.762450    38.495863    46.735651
C     53.297736    39.261522    45.517447
C     51.108713    36.904486    47.336449
O     50.250036    36.039823    46.676170
O     51.310832    35.562263    49.275843
O     54.113177    36.309819    49.456669
O     54.668865    38.796515    48.130663
O     51.861594    37.511593    46.270435
O     54.021032    38.415578    44.644020
H     52.523073    35.255532    47.711201
H     52.735474    37.825757    49.494830
H     54.450948    37.096308    46.991335
H     52.185200    39.217943    47.347057
H     52.454065    39.691579    44.943186
H     53.952229    40.082508    45.871111
H     50.530952    37.689713    47.866582
H     49.441894    36.656155    46.341517
H     51.582724    35.903799    50.203200
H     53.941639    36.317444    50.494417
H     55.449559    38.996086    47.496144
H     55.026488    38.726749    44.661178
P     53.748968    38.263245    42.434688
O     52.643385    37.278282    42.306827
O     53.440607    39.698792    42.418150
O     55.050718    37.544883    42.747118
P     55.884641    38.761991    39.626950
O     57.230125    38.960071    40.349665
O     55.901750    37.690217    38.582836
O     54.841411    38.869733    40.773653
P     55.421500    40.979213    37.525842
O     55.841504    42.350201    37.980176
O     56.053083    40.312975    36.328266
O     55.283126    40.136518    38.899591
O     53.859125    41.288796    37.085798
C     53.300000    40.708000    35.894000
H     53.420573    41.387032    35.053666
H     53.694531    39.728632    35.588159
C     58.778000    39.640000    45.275000
H     58.938152    40.480794    44.589357
H     59.232622    38.738528    44.815208
C     57.275959    39.387528    45.409122
O     56.520027    39.386426    44.393060
O     56.784986    39.235239    46.544504
C     49.367000    33.471000    42.644000
H     50.210382    32.850806    42.977739
H     49.526708    33.668322    41.576285
C     49.297857    34.794370    43.404842
H     48.490159    35.431292    42.997979
H     49.043422    34.646963    44.472548
C     50.644089    35.504830    43.290790
H     50.853932    35.796733    42.241988
H     50.594696    36.458673    43.852543
C     51.780088    34.639016    43.840404
H     51.423432    33.964113    44.650918
H     52.231326    34.012507    43.032680
N     52.838627    35.549717    44.392634
H     52.432584    36.234612    45.066571
H     53.568886    35.013405    44.907749
H     53.278004    36.106115    43.619704
C     50.919000    37.490000    39.432000
H     51.625930    37.100680    40.200305
O     51.644983    37.719141    38.226593
H     52.579695    37.989091    38.419891
C     49.856969    36.456888    39.073103
H     49.097621    36.882739    38.410016
H     50.320487    35.616333    38.540832
H     49.371352    36.063967    39.972511
Mg    56.533625    38.897213    42.339079
O     58.441421    38.420056    42.685977
H     58.916307    37.643722    42.260422
H     58.973231    39.226965    42.321588
H     52.276686    40.595866    36.252266
H     59.281679    39.844994    46.219662
H     48.460643    32.881339    42.781541
H     50.510479    38.453600    39.736444
78
frame=7 E_kcal=-1627.9273
C     52.076157    36.119649    48.242220
C     53.161765    37.085443    48.783651
C     53.850038    37.797678    47.591843
C     52.767138    38.493166    46.728256
C     53.298555    39.264318    45.512139
C     51.110070    36.906947    47.332411
O     50.250599    36.041702    46.674953
O     51.309530    35.566008    49.272730
O     54.113495    36.314154    49.456768
O     54.668147    38.798845    48.127177
O     51.866437    37.509090    46.264935
O     54.022756    38.420891    44.625378
H     52.525416    35.257522    47.708704
H     52.736473    37.829860    49.489986
H     54.456526    37.095507    46.991836
H     52.191092    39.217689    47.341525
H     52.449681    39.705800    44.953431
H     53.961090    40.078855    45.868690
H     50.532985    37.695476    47.860046
H     49.442515    36.658260    46.340517
H     51.583700    35.906327    50.200073
H     53.939300    36.320665    50.494863
H     55.451352    38.998336    47.495956
H     55.045054    38.737010    44.653924
P     53.735290    38.289084    42.546080
O     52.629665    37.295776    42.480903
O     53.433959    39.715890    42.396668
O     55.057667    37.568264    42.724714
P     55.906304    38.758606    39.615581
O     57.261111    38.936019    40.329265
O     55.910491    37.679441    38.578242
O     54.853418    38.886731    40.738430
P     55.426731    40.978060    37.514482
O     55.840823    42.355699    37.957194
O     56.049570    40.317966    36.307875
O     55.301843    40.124635    38.879521
O     53.856399    41.278172    37.090567
C     53.300000    40.708000    35.894000
H     53.420090    41.388462    35.055068
H     53.693193    39.729226    35.585593
C     58.778000    39.640000    45.275000
H     58.939537    40.479407    44.588469
H     59.234130    38.737865    44.816500
C     57.277011    39.384050    45.406295
O     56.523467    39.374165    44.387452
O     56.784531    39.234526    46.541608
C     49.367000    33.471000    42.644000
H     50.209790    32.850628    42.978677
H     49.527418    33.667937    41.576327
C     49.295315    34.794646    43.404195
H     48.488291    35.431464    42.996316
H     49.039809    34.647316    44.471627
C     50.642528    35.502805    43.292910
H     50.853659    35.799072    42.245960
H     50.596882    36.455085    43.858836
C     51.773622    34.627539    43.838710
H     51.412855    33.949490    44.644179
H     52.223350    34.005104    43.027236
N     52.834681    35.528855    44.396617
H     52.428338    36.218548    45.064675
H     53.558023    34.989893    44.915864
H     53.278615    36.087511    43.618175
C     50.919000    37.490000    39.432000
H     51.622367    37.104161    40.204577
O     51.647934    37.716905    38.229318
H     52.582785    37.987531    38.424099
C     49.857593    36.456117    39.074479
H     49.096708    36.881064    38.412446
H     50.320356    35.615661    38.541385
H     49.373573    36.063341    39.974893
Mg    56.550186    38.904248    42.300702
O     58.451755    38.416172    42.693136
H     58.930450    37.640220    42.264268
H     58.985626    39.224449    42.331828
H     52.276686    40.595866    36.252266
H     59.281679    39.844994    46.219662
H     48.460643    32.881339    42.781541
H     50.510479    38.453600    39.736444
78
frame=8 E_kcal=-1628.4044
C     52.078882    36.126378    48.237633
C     53.164419    37.089157    48.784176
C     53.856503    37.801696    47.595161
C     52.774614    38.499141    46.731326
C     53.313252    39.292839    45.534817
C     51.118654    36.914599    47.322004
O     50.260901    36.050053    46.661440
O     51.306464    35.576063    49.265807
O     54.113504    36.316397    49.458704
O     54.673521    38.801939    48.134460
O     51.882119    37.513049    46.256840
O     54.046208    38.456733    44.640439
H     52.528893    35.264070    47.705573
H     52.737036    37.831883    49.491365
H     54.461896    37.101409    46.990595
H     52.190568    39.218037    47.344421
H     52.471655    39.753253    44.981528
H     53.976945    40.097657    45.912158
H     50.540499    37.703502    47.847685
H     49.449511    36.667122    46.333377
H     51.583891    35.910212    50.194350
H     53.938250    36.323582    50.496922
H     55.458132    39.002105    47.507319
H     55.082319    38.796154    44.660402
P     53.729671    38.309970    42.671339
O     52.612523    37.326313    42.662509
O     53.457953    39.724066    42.403169
O     55.058952    37.584689    42.734455
P     55.926983    38.752898    39.593515
O     57.283981    38.903237    40.310104
O     55.920456    37.672668    38.557524
O     54.864077    38.895557    40.693742
P     55.439253    40.975509    37.493822
O     55.848840    42.355969    37.932821
O     56.048770    40.314572    36.279547
O     55.329204    40.119876    38.856385
O     53.860156    41.264724    37.093017
C     53.300000    40.708000    35.894000
H     53.419575    41.394746    35.059695
H     53.687153    39.729625    35.575644
C     58.778000    39.640000    45.275000
H     58.948394    40.478962    44.588457
H     59.236367    38.738890    44.816260
C     57.278132    39.393228    45.396581
O     56.533628    39.407873    44.370438
O     56.773659    39.229759    46.524519
C     49.367000    33.471000    42.644000
H     50.206026    32.848557    42.982254
H     49.530906    33.665468    41.576310
C     49.285025    34.796728    43.398819
H     48.485254    35.434976    42.979571
H     49.016483    34.653593    44.463631
C     50.637568    35.493921    43.301541
H     50.854643    35.809114    42.261844
H     50.603230    36.436912    43.886206
C     51.752211    34.587499    43.831982
H     51.377245    33.898009    44.621479
H     52.197799    33.976248    43.009938
N     52.816947    35.463541    44.414584
H     52.412010    36.124921    45.110278
H     53.547625    34.907608    44.904719
H     53.249958    36.061953    43.652057
C     50.919000    37.490000    39.432000
H     51.621771    37.107717    40.206674
O     51.649940    37.716460    38.231602
H     52.582200    37.994225    38.430490
C     49.859307    36.454324    39.075954
H     49.096846    36.877375    38.414412
H     50.322665    35.614770    38.541848
H     49.376258    36.060628    39.976611
Mg    56.544041    38.905554    42.262084
O     58.441992    38.420851    42.689587
H     58.923424    37.646334    42.262711
H     58.985268    39.227175    42.338142
H     52.276686    40.595866    36.252266
H     59.281679    39.844994    46.219662
H     48.460643    32.881339    42.781541
H     50.510479    38.453600    39.736444
78
frame=9 E_kcal=-1629.4723
C     52.083307    36.129458    48.235517
C     53.168773    37.088456    48.789324
C     53.864793    37.804828    47.604993
C     52.787557    38.507680    46.739068
C     53.334822    39.326952    45.563091
C     51.130393    36.921350    47.313785
O     50.275949    36.057934    46.646537
O     51.303469    35.582440    49.260095
O     54.114615    36.310920    49.463139
O     54.682046    38.801617    48.150827
O     51.903187    37.519540    46.254092
O     54.068281    38.501495    44.652468
H     52.533174    35.264815    47.706977
H     52.740374    37.829632    49.498342
H     54.471233    37.105470    47.000748
H     52.194877    39.216097    47.356170
H     52.497617    39.821357    45.031366
H     54.015918    40.107453    45.962316
H     50.549267    37.710499    47.836534
H     49.462040    36.674203    46.322401
H     51.574681    35.919480    50.189038
H     53.939303    36.320879    50.502469
H     55.466029    39.002312    47.526796
H     55.127920    38.870048    44.652091
P     53.706919    38.329740    42.795613
O     52.592416    37.340698    42.828162
O     53.430042    39.719692    42.422160
O     55.037179    37.599229    42.744667
P     55.925985    38.749903    39.584437
O     57.282378    38.879512    40.307900
O     55.920946    37.670897    38.548163
O     54.848194    38.908571    40.659904
P     55.444369    40.977637    37.483881
O     55.852184    42.359692    37.919915
O     56.048781    40.317660    36.266158
O     55.337011    40.115889    38.840919
O     53.862521    41.264747    37.090632
C     53.300000    40.708000    35.894000
H     53.418058    41.394555    35.059430
H     53.686291    39.729993    35.574368
C     58.778000    39.640000    45.275000
H     58.950120    40.477164    44.586915
H     59.232681    38.736435    44.816239
C     57.281152    39.396860    45.405505
O     56.534635    39.418055    44.377522
O     56.775611    39.232423    46.531759
C     49.367000    33.471000    42.644000
H     50.201638    32.848339    42.991183
H     49.538538    33.658781    41.576455
C     49.273329    34.801202    43.389426
H     48.483938    35.439212    42.950927
H     48.984411    34.664883    44.449778
C     50.629687    35.491887    43.314114
H     50.851464    35.837139    42.285484
H     50.602476    36.418084    43.927821
C     51.734552    34.558327    43.818095
H     51.350232    33.844684    44.581159
H     52.179024    33.972459    42.977303
N     52.798891    35.406817    44.434281
H     52.394303    36.037318    45.157472
H     53.534633    34.833798    44.895373
H     53.226474    36.048201    43.693733
C     50.919000    37.490000    39.432000
H     51.622938    37.109715    40.206276
O     51.651451    37.717651    38.232439
H     52.576867    38.015020    38.436427
C     49.861235    36.453160    39.075555
H     49.098189    36.875109    38.413870
H     50.325708    35.614014    38.541612
H     49.378165    36.058820    39.975950
Mg    56.515521    38.898345    42.235808
O     58.419731    38.431537    42.684360
H     58.900627    37.658114    42.257158
H     58.959288    39.239416    42.329909
H     52.276686    40.595866    36.252266
H     59.281679    39.844994    46.219662
H     48.460643    32.881339    42.781541
H     50.510479    38.453600    39.736444
78
frame=10 E_kcal=-1629.9688
C     52.085887    36.130817    48.234609
C     53.172306    37.083995    48.794756
C     53.872706    37.802795    47.615711
C     52.801279    38.511022    46.747323
C     53.362646    39.348964    45.589321
C     51.140641    36.928469    47.309155
O     50.287466    36.066710    46.637814
O     51.299714    35.586129    49.256038
O     54.115668    36.302125    49.466922
O     54.687364    38.797740    48.170586
O     51.918991    37.525954    46.252740
O     54.109454    38.542979    44.671358
H     52.533984    35.264367    47.707729
H     52.744545    37.823474    49.506001
H     54.481568    37.105998    47.011113
H     52.205054    39.216181    47.365019
H     52.530661    39.871840    45.072388
H     54.054592    40.110545    46.008431
H     50.558298    37.716266    47.832675
H     49.472194    36.682372    46.316320
H     51.571168    35.919310    50.185958
H     53.941889    36.314365    50.506545
H     55.473681    39.000705    47.554981
H     55.212377    38.938127    44.657530
P     53.699290    38.351505    42.911836
O     52.577037    37.369123    42.969437
O     53.433633    39.720090    42.450785
O     55.020117    37.607443    42.754744
P     55.925581    38.749073    39.556417
O     57.277964    38.861536    40.290568
O     55.918681    37.664180    38.528229
O     54.834158    38.926430    40.609126
P     55.451920    40.983052    37.463476
O     55.858171    42.362974    37.907098
O     56.049301    40.322956    36.242233
O     55.346980    40.115606    38.815002
O     53.867417    41.270628    37.083452
C     53.300000    40.708000    35.894000
H     53.414019    41.390716    35.054793
H     53.684518    39.727820    35.576689
C     58.778000    39.640000    45.275000
H     58.939786    40.477090    44.583715
H     59.229731    38.737615    44.810352
C     57.283411    39.396218    45.430713
O     56.523481    39.410496    44.403689
O     56.784969    39.238517    46.558585
C     49.367000    33.471000    42.644000
H     50.198877    32.848599    42.997110
H     49.543637    33.654966    41.576739
C     49.264092    34.803965    43.383629
H     48.480545    35.440639    42.932994
H     48.961253    34.670857    44.440545
C     50.621652    35.492967    43.324522
H     50.847167    35.860972    42.305129
H     50.596449    36.406365    43.959207
C     51.721701    34.543349    43.809404
H     51.332318    33.812571    44.553731
H     52.167676    33.977227    42.956037
N     52.783680    35.372639    44.450499
H     52.376154    35.988878    45.183932
H     53.516457    34.789914    44.902392
H     53.216743    36.037121    43.726916
C     50.919000    37.490000    39.432000
H     51.624252    37.112817    40.206626
O     51.650276    37.716774    38.231646
H     52.575750    38.015040    38.433787
C     49.862111    36.452084    39.076942
H     49.098535    36.873376    38.415253
H     50.326825    35.613079    38.542905
H     49.379303    36.057642    39.977429
Mg    56.475974    38.875587    42.189143
O     58.386342    38.450102    42.676108
H     58.870999    37.676641    42.257804
H     58.929402    39.253387    42.317020
H     52.276686    40.595866    36.252266
H     59.281679    39.844994    46.219662
H     48.460643    32.881339    42.781541
H     50.510479    38.453600    39.736444
78
frame=11 E_kcal=-1630.9092
C     52.075202    36.120055    48.246163
C     53.156806    37.080976    48.800380
C     53.839540    37.807634    47.616613
C     52.760686    38.519457    46.762006
C     53.313821    39.338656    45.575883
C     51.115841    36.917841    47.336095
O     50.265162    36.051098    46.665703
O     51.305857    35.558809    49.271398
O     54.116551    36.310342    49.464378
O     54.663055    38.794410    48.184457
O     51.875928    37.532922    46.279816
O     54.061851    38.533277    44.695717
H     52.527004    35.261920    47.707968
H     52.727381    37.817387    49.515701
H     54.445440    37.118459    46.999041
H     52.173425    39.227325    47.377638
H     52.477572    39.884381    45.094849
H     54.028730    40.084459    45.992208
H     50.529411    37.694119    47.872958
H     49.459790    36.669372    46.328061
H     51.568231    35.907609    50.198161
H     53.941437    36.311381    50.503108
H     55.445107    38.989370    47.593118
H     55.536606    39.052153    44.631773
P     53.756867    38.345806    43.022274
O     52.594850    37.394051    42.960701
O     53.632369    39.692583    42.421250
O     55.083532    37.560025    42.881581
P     55.857600    38.736310    39.452557
O     57.206140    38.906904    40.182535
O     55.909605    37.655587    38.428335
O     54.721601    38.802802    40.471490
P     55.436586    41.024228    37.440401
O     55.862694    42.374262    37.942027
O     56.049692    40.362472    36.231735
O     55.264415    40.104521    38.747518
O     53.872266    41.354989    37.034965
C     53.300000    40.708000    35.894000
H     53.397357    41.348024    35.017611
H     53.699530    39.718561    35.625151
C     58.778000    39.640000    45.275000
H     58.928359    40.472682    44.573021
H     59.220604    38.739162    44.790523
C     57.311557    39.396568    45.507030
O     56.543557    39.427192    44.443610
O     56.799748    39.225567    46.610701
C     49.367000    33.471000    42.644000
H     50.199305    32.857959    43.012497
H     49.555130    33.647214    41.578109
C     49.243306    34.807160    43.374787
H     48.466760    35.437334    42.903460
H     48.916866    34.676926    44.425158
C     50.596338    35.504370    43.345311
H     50.833254    35.895044    42.336903
H     50.555064    36.404032    43.998064
C     51.705106    34.560052    43.827172
H     51.325079    33.814352    44.558412
H     52.164548    34.014533    42.967437
N     52.747935    35.410020    44.469363
H     52.343619    35.976585    45.237711
H     53.529780    34.855981    44.866402
H     53.106267    36.143567    43.718471
C     50.919000    37.490000    39.432000
H     51.630629    37.121024    40.206631
O     51.643968    37.714701    38.227316
H     52.573209    38.001851    38.427068
C     49.864280    36.447114    39.087316
H     49.098641    36.861586    38.424038
H     50.330090    35.604808    38.559434
H     49.384399    36.058212    39.992095
Mg    56.275201    38.831671    41.984446
O     58.219323    38.538696    42.597714
H     58.717885    37.760918    42.227747
H     58.778920    39.325078    42.241362
H     52.276686    40.595866    36.252266
H     59.281679    39.844994    46.219662
H     48.460643    32.881339    42.781541
H     50.510479    38.453600    39.736444
78
frame=12 E_kcal=-1633.7771
C     52.055269    36.078769    48.254445
C     53.129176    37.055591    48.803696
C     53.791397    37.793098    47.615425
C     52.683257    38.492316    46.790271
C     53.206890    39.348685    45.623626
C     51.085546    36.853583    47.335704
O     50.236853    35.981728    46.666828
O     51.289154    35.525273    49.286476
O     54.102401    36.296529    49.461233
O     54.627902    38.779936    48.161023
O     51.843331    37.476070    46.283150
O     54.061583    38.582150    44.806451
H     52.513885    35.220896    47.724796
H     52.692339    37.781980    49.524431
H     54.387308    37.108128    46.982494
H     52.065577    39.157620    47.419315
H     52.352425    39.823219    45.104198
H     53.845396    40.153690    46.051341
H     50.484848    37.620820    47.870665
H     49.438943    36.593449    46.320226
H     51.560970    35.874003    50.210111
H     53.937408    36.300193    50.501558
H     55.411309    38.952881    47.560408
H     55.534333    39.271802    44.714534
P     53.802153    38.306578    43.161973
O     52.538697    37.528516    43.037385
O     53.978157    39.653392    42.505340
O     55.036030    37.389831    43.024472
P     55.702543    38.699335    39.411139
O     56.969699    38.949061    40.249617
O     55.921153    37.643589    38.386310
O     54.449410    38.628338    40.273729
P     55.411679    41.040823    37.450641
O     55.863538    42.360482    38.002617
O     56.054470    40.386897    36.253840
O     55.112403    40.060290    38.688832
O     53.873963    41.421563    36.992838
C     53.300000    40.708000    35.894000
H     53.386214    41.316745    34.992371
H     53.713774    39.715014    35.659495
C     58.778000    39.640000    45.275000
H     58.916888    40.465103    44.560573
H     59.209234    38.733822    44.790808
C     57.316992    39.408359    45.552517
O     56.518722    39.606756    44.527566
O     56.821869    39.129887    46.643203
C     49.367000    33.471000    42.644000
H     50.194981    32.851194    43.010863
H     49.553039    33.648285    41.577879
C     49.259828    34.808544    43.378202
H     48.494812    35.449062    42.900638
H     48.918978    34.677595    44.423968
C     50.615886    35.506507    43.372198
H     50.846427    35.943393    42.381268
H     50.578933    36.377105    44.067007
C     51.725450    34.546076    43.806924
H     51.371933    33.858003    44.608073
H     52.088745    33.937360    42.944175
N     52.867512    35.361487    44.327137
H     52.522481    36.099775    44.984728
H     53.552212    34.782724    44.858200
H     53.347213    35.847666    43.526851
C     50.919000    37.490000    39.432000
H     51.634112    37.128438    40.207171
O     51.641464    37.712289    38.227216
H     52.570103    38.008600    38.433090
C     49.865836    36.442419    39.097108
H     49.101957    36.849389    38.427040
H     50.334001    35.594788    38.579917
H     49.383605    36.063539    40.004465
Mg    55.919907    38.856049    41.958432
O     57.936064    38.720510    42.612421
H     58.391119    37.913625    42.286566
H     58.508973    39.453946    42.207033
H     52.276686    40.595866    36.252266
H     59.281679    39.844994    46.219662
H     48.460643    32.881339    42.781541
H     50.510479    38.453600    39.736444
78
frame=13 E_kcal=-1633.5457
C     52.055001    36.077902    48.257521
C     53.128880    37.054165    48.808118
C     53.789425    37.794891    47.621778
C     52.676900    38.494788    46.802881
C     53.198577    39.361193    45.645773
C     51.085531    36.853769    47.339385
O     50.234881    35.984772    46.670635
O     51.289772    35.522816    49.289313
O     54.102170    36.296230    49.465603
O     54.629032    38.781012    48.165092
O     51.842679    37.478081    46.287239
O     54.070036    38.602800    44.835368
H     52.516142    35.222646    47.726158
H     52.694524    37.778203    49.530480
H     54.380678    37.109725    46.983812
H     52.054217    39.152883    47.433115
H     52.346733    39.831287    45.117897
H     53.830330    40.169708    46.075084
H     50.485530    37.619843    47.875693
H     49.438239    36.599117    46.322784
H     51.554852    35.879564    50.212549
H     53.939225    36.300814    50.507243
H     55.412850    38.946655    47.564573
H     55.542807    39.301428    44.719968
P     53.787345    38.291033    43.226230
O     52.512568    37.530923    43.121311
O     53.968943    39.617523    42.520958
O     55.009615    37.363011    43.053215
P     55.660738    38.706329    39.375281
O     56.893829    38.952379    40.264456
O     55.933815    37.630127    38.386145
O     54.347911    38.669434    40.136278
P     55.427004    41.054134    37.407620
O     55.883654    42.365872    37.973091
O     56.050264    40.397473    36.201402
O     55.114800    40.062889    38.628157
O     53.881882    41.437021    36.975189
C     53.300000    40.708000    35.894000
H     53.380745    41.301854    34.981289
H     53.703911    39.708184    35.670036
C     58.778000    39.640000    45.275000
H     58.915235    40.467628    44.561992
H     59.210097    38.735959    44.786461
C     57.320618    39.406012    45.555274
O     56.525120    39.623720    44.531006
O     56.823746    39.114456    46.641499
C     49.367000    33.471000    42.644000
H     50.195016    32.847479    43.003691
H     49.548149    33.653648    41.577812
C     49.263931    34.805691    43.385158
H     48.497115    35.448663    42.913524
H     48.927127    34.670331    44.431531
C     50.621762    35.500744    43.377285
H     50.851110    35.935543    42.385445
H     50.589588    36.372166    44.073338
C     51.725747    34.531083    43.806007
H     51.368899    33.849647    44.611490
H     52.077253    33.914059    42.943908
N     52.879502    35.332926    44.319160
H     52.543326    36.086715    44.965195
H     53.550142    34.748520    44.862833
H     53.372686    35.799784    43.519718
C     50.919000    37.490000    39.432000
H     51.633780    37.127970    40.207285
O     51.643184    37.712728    38.228914
H     52.570828    38.015008    38.440292
C     49.865913    36.442315    39.096351
H     49.103348    36.849261    38.424723
H     50.334903    35.595261    38.579070
H     49.382569    36.063289    40.003037
Mg    55.869654    38.829015    41.958925
O     57.903840    38.723926    42.595131
H     58.368423    37.916270    42.288751
H     58.469382    39.455024    42.181830
H     52.276686    40.595866    36.252266
H     59.281679    39.844994    46.219662
H     48.460643    32.881339    42.781541
H     50.510479    38.453600    39.736444
78
frame=14 E_kcal=-1633.2281
C     52.053184    36.071043    48.264535
C     53.126819    37.047284    48.817195
C     53.785424    37.789241    47.631097
C     52.669524    38.491897    46.819994
C     53.191509    39.376676    45.678127
C     51.085613    36.847012    47.344184
O     50.234090    35.978511    46.676330
O     51.287385    35.515070    49.295347
O     54.101739    36.288113    49.470388
O     54.631889    38.772739    48.169392
O     51.845871    37.471304    46.293336
O     54.076840    38.632211    44.868443
H     52.514686    35.215216    47.734759
H     52.693494    37.769144    49.542511
H     54.372261    37.103131    46.989631
H     52.037903    39.134435    47.456011
H     52.338590    39.850242    45.152519
H     53.820699    40.183025    46.116920
H     50.484981    37.612079    47.881468
H     49.440309    36.592378    46.323804
H     51.551826    35.872392    50.218710
H     53.942659    36.292456    50.513159
H     55.411237    38.934896    47.565020
H     55.530718    39.370361    44.739559
P     53.763533    38.273043    43.278168
O     52.478839    37.531632    43.208551
O     53.954260    39.583570    42.538380
O     54.962495    37.315964    43.092207
P     55.484554    38.665895    39.361662
O     56.646544    38.998307    40.324793
O     55.952495    37.627060    38.402068
O     54.085696    38.507592    39.909016
P     55.410744    41.051174    37.427339
O     55.896791    42.339478    38.019903
O     56.067423    40.395916    36.238138
O     54.976408    40.022856    38.580371
O     53.898081    41.488445    36.931031
C     53.300000    40.708000    35.894000
H     53.375323    41.276323    34.963332
H     53.714435    39.705763    35.700873
C     58.778000    39.640000    45.275000
H     58.917922    40.465146    44.559312
H     59.207058    38.732895    44.789302
C     57.319993    39.410811    45.554547
O     56.520904    39.666908    44.538865
O     56.821579    39.096839    46.632657
C     49.367000    33.471000    42.644000
H     50.194213    32.841171    42.993376
H     49.541515    33.661260    41.577698
C     49.270777    34.801100    43.393967
H     48.505755    35.450556    42.928247
H     48.936525    34.661390    44.440224
C     50.631722    35.489993    43.386577
H     50.856218    35.936991    42.398876
H     50.607670    36.352872    44.094768
C     51.730565    34.505652    43.794068
H     51.374186    33.822033    44.598597
H     52.064558    33.891616    42.923076
N     52.899720    35.287773    44.301714
H     52.574971    36.050960    44.944158
H     53.556216    34.694746    44.853867
H     53.406338    35.737964    43.505394
C     50.919000    37.490000    39.432000
H     51.634869    37.126637    40.205040
O     51.644105    37.721594    38.232489
H     52.574325    38.032839    38.457571
C     49.866393    36.442239    39.092111
H     49.106177    36.851107    38.419268
H     50.338227    35.597580    38.573769
H     49.381564    36.061646    39.996589
Mg    55.840594    38.806585    42.059683
O     57.884548    38.730996    42.596607
H     58.350756    37.922094    42.298914
H     58.438485    39.463544    42.174844
H     52.276686    40.595866    36.252266
H     59.281679    39.844994    46.219662
H     48.460643    32.881339    42.781541
H     50.510479    38.453600    39.736444
