78
frame=0 E_kcal=-1643.4587
C     52.046912    36.088843    48.302220
C     53.125923    37.061592    48.850251
C     53.783746    37.790558    47.659047
C     52.685923    38.492021    46.818454
C     53.272004    39.117499    45.546341
C     51.047845    36.875354    47.430835
O     50.193065    36.009004    46.765980
O     51.311993    35.495570    49.332082
O     54.102260    36.289755    49.487865
O     54.639706    38.776826    48.165280
O     51.765167    37.519435    46.366820
O     54.160090    38.173807    45.024946
H     52.504721    35.249991    47.738662
H     52.702818    37.784403    49.579274
H     54.369653    37.081196    47.037504
H     52.130581    39.252291    47.381188
H     52.493804    39.302886    44.783534
H     53.789891    40.063285    45.784269
H     50.462458    37.637717    47.986394
H     49.407612    36.631178    46.396832
H     51.566803    35.866376    50.256811
H     53.951470    36.298240    50.533582
H     55.410656    38.959056    47.521652
H     55.065182    38.608114    44.863811
P     54.012847    38.267272    41.821083
O     52.650788    37.688718    41.659916
O     54.264167    39.660971    42.351588
O     54.964765    37.274160    42.522641
P     55.818958    38.718351    39.474401
O     56.958134    38.947673    40.445073
O     55.930439    37.721709    38.376982
O     54.435226    38.340939    40.202149
P     55.425510    40.993765    37.471016
O     55.832930    42.353997    37.960141
O     56.040508    40.342679    36.265832
O     55.573477    40.232525    38.891136
O     53.845298    41.224039    37.121433
C     53.300000    40.708000    35.894000
H     53.422656    41.407921    35.073394
H     53.679618    39.731194    35.560629
C     58.778000    39.640000    45.275000
H     58.898725    40.483469    44.585235
H     59.224374    38.746044    44.796347
C     57.285107    39.378907    45.497786
O     56.484934    39.417843    44.517803
O     56.814592    39.203135    46.636420
C     49.367000    33.471000    42.644000
H     50.224761    32.827315    42.892825
H     49.467826    33.727232    41.580344
C     49.395755    34.753290    43.479143
H     48.545934    35.404052    43.191254
H     49.243793    34.544642    44.554701
C     50.710181    35.523481    43.293883
H     50.875329    35.776554    42.227586
H     50.596019    36.495258    43.810319
C     51.936667    34.802770    43.859427
H     51.657610    34.152944    44.722179
H     52.414467    34.161320    43.080919
N     52.946550    35.824224    44.333710
H     52.503906    36.524612    44.961811
H     53.696263    35.367457    44.900609
H     53.393704    36.345791    43.548631
C     50.919000    37.490000    39.432000
H     51.616618    37.059535    40.186034
O     51.653042    37.733152    38.232858
H     52.598034    37.945412    38.456279
C     49.843361    36.472596    39.053298
H     49.085554    36.916987    38.403136
H     50.300185    35.640698    38.503632
H     49.361094    36.067242    39.948662
Mg    56.306501    38.826104    42.628091
O     58.305431    38.474188    42.619925
H     58.792708    37.686767    42.274002
H     58.830618    39.273108    42.270578
H     52.276686    40.595866    36.252266
H     59.281679    39.844994    46.219662
H     48.460643    32.881339    42.781541
H     50.510479    38.453600    39.736444
78
frame=1 E_kcal=-1643.1921
C     52.049412    36.096989    48.295012
C     53.128238    37.067236    48.847273
C     53.790127    37.796545    47.659017
C     52.695890    38.502551    46.818309
C     53.292244    39.139071    45.557219
C     51.056474    36.883266    47.416108
O     50.208134    36.015667    46.744028
O     51.305867    35.509092    49.322432
O     54.100845    36.292974    49.487590
O     54.647486    38.780949    48.166252
O     51.778451    37.530936    46.357758
O     54.164906    38.189381    45.019539
H     52.507903    35.255537    47.736020
H     52.703198    37.789888    49.575066
H     54.374807    37.087901    47.035347
H     52.134916    39.258515    47.381531
H     52.519277    39.356925    44.798107
H     53.826736    40.070527    45.815476
H     50.466309    37.644329    47.967349
H     49.417965    36.634863    46.380541
H     51.564994    35.870009    50.249208
H     53.948603    36.303817    50.532707
H     55.414790    38.965525    47.518513
H     55.067245    38.619002    44.840324
P     53.964115    38.253709    41.846027
O     52.639982    37.593200    41.676513
O     54.123258    39.659216    42.357154
O     54.967844    37.313525    42.550978
P     55.788770    38.714427    39.496011
O     56.930813    38.959166    40.465545
O     55.930496    37.721341    38.397933
O     54.413465    38.329070    40.227271
P     55.415894    40.991839    37.489673
O     55.834864    42.346324    37.984257
O     56.041927    40.337770    36.291854
O     55.518629    40.226480    38.912550
O     53.844696    41.244602    37.113327
C     53.300000    40.708000    35.894000
H     53.424206    41.401161    35.067176
H     53.686139    39.730065    35.571715
C     58.778000    39.640000    45.275000
H     58.913176    40.479958    44.584126
H     59.220116    38.741005    44.800501
C     57.283170    39.388636    45.484423
O     56.488340    39.436547    44.499888
O     56.810118    39.210769    46.621424
C     49.367000    33.471000    42.644000
H     50.219907    32.837363    42.931788
H     49.493099    33.696553    41.576593
C     49.374427    34.776491    43.441353
H     48.537190    35.421681    43.109264
H     49.192917    34.598787    44.518557
C     50.699462    35.529179    43.264455
H     50.878577    35.773050    42.197646
H     50.597859    36.506120    43.771980
C     51.908832    34.791194    43.844083
H     51.608921    34.133277    44.693279
H     52.394460    34.155278    43.065141
N     52.918104    35.798025    44.348113
H     52.476030    36.480730    44.997831
H     53.672002    35.324563    44.896330
H     53.359037    36.344374    43.578426
C     50.919000    37.490000    39.432000
H     51.620698    37.058761    40.181970
O     51.649340    37.733812    38.230256
H     52.594071    37.947973    38.448788
C     49.844060    36.471793    39.052272
H     49.086473    36.915540    38.401191
H     50.302136    35.639484    38.503876
H     49.361450    36.066461    39.947147
Mg    56.309177    38.838983    42.607182
O     58.313201    38.466010    42.635775
H     58.787951    37.678076    42.268651
H     58.835973    39.260403    42.272349
H     52.276686    40.595866    36.252266
H     59.281679    39.844994    46.219662
H     48.460643    32.881339    42.781541
H     50.510479    38.453600    39.736444
78
frame=2 E_kcal=-1642.3265
C     52.051505    36.099172    48.291093
C     53.131110    37.066617    48.846767
C     53.795385    37.795897    47.660621
C     52.703659    38.505224    46.819864
C     53.308836    39.152521    45.569161
C     51.063603    36.886850    47.407158
O     50.215804    36.019955    46.733272
O     51.302940    35.514515    49.317192
O     54.101362    36.289840    49.488139
O     54.656004    38.777639    48.169147
O     51.791137    37.532360    46.351299
O     54.174772    38.199086    45.026423
H     52.509750    35.255966    47.734750
H     52.705987    37.788974    49.574816
H     54.378917    37.087420    47.035665
H     52.137589    39.256324    47.384500
H     52.539967    39.390330    44.811011
H     53.852453    40.074722    45.841714
H     50.472684    37.648889    47.956435
H     49.424248    36.639537    46.372649
H     51.563652    35.872166    50.244118
H     53.948668    36.302331    50.532912
H     55.412655    38.969833    47.514029
H     55.065813    38.628405    44.807224
P     53.857891    38.281145    41.880249
O     52.648102    37.425952    41.690927
O     53.720386    39.688523    42.334057
O     54.953034    37.457708    42.608328
P     55.763659    38.716450    39.537657
O     56.925545    38.970571    40.492023
O     55.932587    37.722003    38.441656
O     54.402761    38.346807    40.281819
P     55.412631    40.981168    37.504772
O     55.835585    42.336813    37.993253
O     56.043931    40.324188    36.311073
O     55.485578    40.224111    38.936424
O     53.845051    41.241633    37.115423
C     53.300000    40.708000    35.894000
H     53.426129    41.403353    35.069671
H     53.685735    39.730958    35.569480
C     58.778000    39.640000    45.275000
H     58.921682    40.479696    44.585116
H     59.222885    38.739351    44.806076
C     57.281822    39.392466    45.468512
O     56.501793    39.428597    44.468896
O     56.800440    39.227948    46.602319
C     49.367000    33.471000    42.644000
H     50.219036    32.842353    42.943836
H     49.502145    33.689954    41.576522
C     49.357672    34.780994    43.433824
H     48.525360    35.422977    43.083587
H     49.158912    34.609101    44.509007
C     50.684219    35.532441    43.274260
H     50.866959    35.793810    42.211813
H     50.585611    36.500690    43.799419
C     51.887916    34.777882    43.843668
H     51.586888    34.121380    44.692910
H     52.361536    34.140368    43.058451
N     52.910226    35.775117    44.339612
H     52.480854    36.464181    44.992194
H     53.664883    35.296816    44.881275
H     53.340010    36.314175    43.559220
C     50.919000    37.490000    39.432000
H     51.624836    37.060063    40.179414
O     51.645680    37.733269    38.227022
H     52.587132    37.960424    38.442994
C     49.844875    36.469742    39.056002
H     49.087375    36.910098    38.402732
H     50.304048    35.635222    38.512076
H     49.362774    36.068072    39.952938
Mg    56.417614    38.782011    42.584726
O     58.390400    38.417793    42.641625
H     58.886368    37.635523    42.269263
H     58.894884    39.228686    42.280089
H     52.276686    40.595866    36.252266
H     59.281679    39.844994    46.219662
H     48.460643    32.881339    42.781541
H     50.510479    38.453600    39.736444
78
frame=3 E_kcal=-1645.2746
C     52.063264    36.113214    48.271895
C     53.145560    37.074531    48.832664
C     53.817748    37.803569    47.650805
C     52.726876    38.521004    46.816490
C     53.339112    39.216264    45.596625
C     51.087855    36.903155    47.374987
O     50.244004    36.036910    46.694227
O     51.301520    35.539813    49.295694
O     54.106183    36.292276    49.481629
O     54.677802    38.781751    48.165942
O     51.828643    37.544039    46.325349
O     54.174456    38.268884    45.003437
H     52.519747    35.263522    47.724611
H     52.719842    37.800130    49.557094
H     54.400442    37.099653    47.020522
H     52.146458    39.250627    47.394172
H     52.566829    39.522122    44.865779
H     53.913708    40.105138    45.915240
H     50.493984    37.667797    47.917653
H     49.443019    36.654160    46.349192
H     51.568714    35.886537    50.223423
H     53.947677    36.304074    50.524038
H     55.427462    38.983307    47.502618
H     55.064457    38.688295    44.752838
P     53.772386    38.237360    41.979540
O     52.705120    37.220237    41.750977
O     53.320528    39.603062    42.356198
O     54.923637    37.559717    42.767689
P     55.888626    38.775477    39.586523
O     57.180860    38.994682    40.379853
O     55.898218    37.718464    38.535491
O     54.890481    38.749608    40.816461
P     55.422808    40.975031    37.498413
O     55.831956    42.344678    37.958020
O     56.043157    40.306620    36.304625
O     55.483053    40.237482    38.940372
O     53.847072    41.219335    37.123948
C     53.300000    40.708000    35.894000
H     53.428565    41.410995    35.077149
H     53.681302    39.733185    35.557894
C     58.778000    39.640000    45.275000
H     58.942690    40.476808    44.586047
H     59.226126    38.734761    44.817270
C     57.278022    39.400907    45.424594
O     56.528231    39.426912    44.402838
O     56.782644    39.251074    46.555118
C     49.367000    33.471000    42.644000
H     50.214796    32.852778    42.972812
H     49.523603    33.672756    41.576541
C     49.313472    34.792218    43.412029
H     48.496069    35.426529    43.017191
H     49.071023    34.636532    44.481089
C     50.647222    35.531509    43.292916
H     50.841297    35.833086    42.243164
H     50.567006    36.478292    43.860535
C     51.825508    34.718864    43.832707
H     51.503015    34.032729    44.650020
H     52.288055    34.105542    43.021308
N     52.862119    35.671795    44.373798
H     52.443046    36.339330    45.056880
H     53.610669    35.154546    44.887417
H     53.292035    36.240496    43.616391
C     50.919000    37.490000    39.432000
H     51.629678    37.075648    40.185057
O     51.636732    37.725065    38.219157
H     52.577826    37.961043    38.406043
C     49.850175    36.462255    39.067730
H     49.090683    36.892800    38.409737
H     50.312196    35.623520    38.532188
H     49.369713    36.066981    39.968834
Mg    56.482397    38.811983    42.464388
O     58.431423    38.400611    42.660736
H     58.933711    37.623100    42.274117
H     58.945847    39.215249    42.311342
H     52.276686    40.595866    36.252266
H     59.281679    39.844994    46.219662
H     48.460643    32.881339    42.781541
H     50.510479    38.453600    39.736444
78
frame=4 E_kcal=-1628.0552
C     52.078409    36.127831    48.241725
C     53.165467    37.088126    48.789684
C     53.857873    37.802306    47.601663
C     52.779425    38.504241    46.738624
C     53.321458    39.284924    45.534374
C     51.118985    36.918391    47.327598
O     50.265006    36.053776    46.661160
O     51.304380    35.576185    49.268135
O     54.113283    36.310672    49.461238
O     54.679301    38.798033    48.142268
O     51.881211    37.522392    46.265876
O     54.039334    38.441909    44.643612
H     52.527833    35.265047    47.709657
H     52.740493    37.829584    49.499301
H     54.462927    37.100557    46.999352
H     52.199796    39.224914    47.350843
H     52.482166    39.744626    44.978048
H     53.992168    40.085895    45.904163
H     50.537359    37.703826    47.854225
H     49.453356    36.669242    46.331722
H     51.581295    35.909286    50.197167
H     53.940749    36.318597    50.500615
H     55.459727    39.001420    47.511191
H     55.060403    38.763782    44.658874
P     53.740906    38.285912    42.566850
O     52.633643    37.293211    42.521892
O     53.441856    39.710575    42.399001
O     55.066640    37.572637    42.741987
P     55.906765    38.750773    39.615784
O     57.262760    38.927560    40.328781
O     55.912907    37.676241    38.573596
O     54.854346    38.872388    40.738536
P     55.427583    40.972590    37.514866
O     55.841867    42.350746    37.955706
O     56.049093    40.312267    36.306968
O     55.303468    40.121417    38.882427
O     53.855124    41.267287    37.095418
C     53.300000    40.708000    35.894000
H     53.421475    41.394699    35.060502
H     53.691424    39.730981    35.578083
C     58.778000    39.640000    45.275000
H     58.949046    40.476435    44.586289
H     59.231968    38.734307    44.820353
C     57.277988    39.394504    45.400552
O     56.532153    39.401424    44.376233
O     56.776394    39.238966    46.530816
C     49.367000    33.471000    42.644000
H     50.206914    32.853629    42.990101
H     49.536501    33.660734    41.576588
C     49.279290    34.799383    43.394347
H     48.479111    35.432410    42.967156
H     49.003733    34.657775    44.457570
C     50.626774    35.508831    43.305339
H     50.839112    35.835510    42.267881
H     50.581151    36.443935    43.900382
C     51.756369    34.615970    43.826087
H     51.393114    33.909309    44.605683
H     52.211493    34.023656    42.995099
N     52.809695    35.501444    44.420051
H     52.398314    36.150730    45.122910
H     53.546229    34.948045    44.905551
H     53.239874    36.107027    43.665832
C     50.919000    37.490000    39.432000
H     51.623726    37.106085    40.204270
O     51.646866    37.716130    38.228674
H     52.582057    37.986854    38.422065
C     49.858626    36.454364    39.077020
H     49.096174    36.877459    38.415652
H     50.321936    35.614229    38.543780
H     49.376423    36.061295    39.978337
Mg    56.556787    38.902316    42.297156
O     58.455998    38.412390    42.696112
H     58.937267    37.637352    42.267649
H     58.992269    39.219856    42.338474
H     52.276686    40.595866    36.252266
H     59.281679    39.844994    46.219662
H     48.460643    32.881339    42.781541
H     50.510479    38.453600    39.736444
78
frame=5 E_kcal=-1629.8657
C     52.084332    36.131188    48.236770
C     53.171474    37.086864    48.791236
C     53.869818    37.802899    47.608331
C     52.796523    38.509020    46.741799
C     53.348308    39.330405    45.569314
C     51.134502    36.927146    47.315548
O     50.280623    36.065423    46.646210
O     51.302283    35.584371    49.259854
O     54.115555    36.306581    49.464107
O     54.685715    38.798780    48.158332
O     51.908152    37.525864    46.256614
O     54.081336    38.510339    44.650616
H     52.532290    35.265845    47.708256
H     52.745116    37.827632    49.501153
H     54.478165    37.103336    47.007377
H     52.207206    39.218622    47.360751
H     52.511938    39.840510    45.050004
H     54.042687    40.097311    45.970793
H     50.553210    37.714495    47.839780
H     49.466126    36.681260    46.320987
H     51.573839    35.919351    50.189342
H     53.941850    36.315560    50.504103
H     55.470312    39.000848    47.538285
H     55.169098    38.883220    44.650532
P     53.699685    38.339066    42.858331
O     52.585342    37.347079    42.885877
O     53.422696    39.716881    42.437371
O     55.029335    37.606786    42.744198
P     55.932130    38.746860    39.570774
O     57.284057    38.874008    40.303308
O     55.924134    37.658928    38.545219
O     54.844003    38.922257    40.627953
P     55.445601    40.984369    37.478401
O     55.849785    42.365460    37.921793
O     56.051449    40.328013    36.258697
O     55.341358    40.109951    38.826723
O     53.862614    41.271044    37.086859
C     53.300000    40.708000    35.894000
H     53.415560    41.390370    35.055243
H     53.689044    39.729195    35.579116
C     58.778000    39.640000    45.275000
H     58.945896    40.475970    44.584067
H     59.230096    38.734751    44.815290
C     57.281719    39.394236    45.415980
O     56.524846    39.403223    44.390609
O     56.781132    39.235250    46.543839
C     49.367000    33.471000    42.644000
H     50.201302    32.851089    42.996602
H     49.542644    33.655784    41.576779
C     49.265323    34.802892    43.385885
H     48.477147    35.437360    42.940102
H     48.968375    34.667528    44.444151
C     50.619836    35.498075    43.320494
H     50.842741    35.855157    42.296186
H     50.588595    36.417304    43.944945
C     51.727404    34.562249    43.815032
H     51.344675    33.834270    44.564828
H     52.178805    33.993590    42.966034
N     52.785674    35.404504    44.447978
H     52.376316    36.030501    45.171519
H     53.518554    34.829590    44.909391
H     53.218490    36.055597    43.712772
C     50.919000    37.490000    39.432000
H     51.623494    37.112246    40.207030
O     51.650522    37.715744    38.231572
H     52.577010    38.010405    38.434358
C     49.861243    36.452620    39.077407
H     49.098058    36.874327    38.415580
H     50.325441    35.613047    38.543871
H     49.378451    36.058897    39.978235
Mg    56.503455    38.884908    42.217202
O     58.411127    38.435835    42.684878
H     58.895534    37.663509    42.259540
H     58.951430    39.241345    42.326945
H     52.276686    40.595866    36.252266
H     59.281679    39.844994    46.219662
H     48.460643    32.881339    42.781541
H     50.510479    38.453600    39.736444
78
frame=6 E_kcal=-1630.3796
C     52.089779    36.135812    48.243479
C     53.181678    37.070861    48.820045
C     53.884270    37.804204    47.654541
C     52.824779    38.536989    46.794969
C     53.424418    39.384512    45.656133
C     51.158869    36.952659    47.319514
O     50.312699    36.099016    46.626692
O     51.291790    35.588393    49.255219
O     54.121082    36.272221    49.479474
O     54.706107    38.783925    48.235469
O     51.943424    37.564765    46.279868
O     54.112263    38.587246    44.717295
H     52.532944    35.269808    47.712530
H     52.759358    37.799741    49.545451
H     54.494904    37.116845    47.041041
H     52.229904    39.234727    47.412118
H     52.628056    40.014052    45.210481
H     54.193942    40.057663    46.100409
H     50.570092    37.728755    47.851543
H     49.498128    36.720632    46.305384
H     51.556446    35.919659    50.186746
H     53.955171    36.286576    50.521984
H     55.476392    39.004388    47.635824
H     55.497883    39.056327    44.633309
P     53.651522    38.383163    43.078311
O     52.530942    37.388211    43.134809
O     53.405459    39.710416    42.481014
O     54.965426    37.616303    42.820048
P     55.865990    38.734903    39.493555
O     57.218516    38.867028    40.228995
O     55.908955    37.655102    38.465509
O     54.736437    38.852553    40.512375
P     55.442217    41.010229    37.452295
O     55.859854    42.370468    37.936675
O     56.052921    40.353362    36.238240
O     55.292782    40.106240    38.774344
O     53.869909    41.323208    37.055107
C     53.300000    40.708000    35.894000
H     53.404013    41.366055    35.032620
H     53.694494    39.722578    35.605635
C     58.778000    39.640000    45.275000
H     58.931210    40.473718    44.573950
H     59.222157    38.737249    44.794561
C     57.307759    39.399298    45.495552
O     56.544752    39.417843    44.433310
O     56.794694    39.244624    46.603224
C     49.367000    33.471000    42.644000
H     50.192114    32.859887    43.029519
H     49.568915    33.634192    41.578667
C     49.224704    34.817029    43.355337
H     48.463379    35.441349    42.851749
H     48.863611    34.697255    44.395187
C     50.576074    35.519486    43.364278
H     50.807923    35.968965    42.379863
H     50.534116    36.382390    44.068692
C     51.686656    34.551038    43.784323
H     51.301209    33.745903    44.449875
H     52.161047    34.080168    42.889330
N     52.716103    35.337213    44.519840
H     52.280944    35.885379    45.286223
H     53.449558    34.733404    44.941222
H     53.159428    36.075055    43.855679
C     50.919000    37.490000    39.432000
H     51.632625    37.121901    40.204327
O     51.641665    37.712530    38.225303
H     52.567480    38.012103    38.421446
C     49.864324    36.445822    39.090896
H     49.098919    36.858349    38.426059
H     50.329786    35.601923    38.565541
H     49.384359    36.059944    39.997072
Mg    56.329381    38.778641    42.040265
O     58.272215    38.498499    42.631890
H     58.778683    37.725830    42.250976
H     58.812016    39.295665    42.264727
H     52.276686    40.595866    36.252266
H     59.281679    39.844994    46.219662
H     48.460643    32.881339    42.781541
H     50.510479    38.453600    39.736444
78
frame=7 E_kcal=-1633.9074
C     52.064446    36.092434    48.250318
C     53.141762    37.060651    48.805771
C     53.813011    37.798099    47.623463
C     52.714216    38.502443    46.788726
C     53.253393    39.350597    45.623033
C     51.103227    36.876838    47.330662
O     50.250802    36.012222    46.659135
O     51.291743    35.540582    49.278460
O     54.107339    36.294518    49.465811
O     54.643959    38.785705    48.177743
O     51.866327    37.494827    46.279236
O     54.068190    38.558365    44.790703
H     52.521127    35.233370    47.720393
H     52.709657    37.788367    49.526545
H     54.413103    37.113186    46.994490
H     52.102254    39.176884    47.414057
H     52.410752    39.859396    45.115577
H     53.927470    40.129594    46.047368
H     50.510017    37.649971    47.865163
H     49.450294    36.630400    46.320304
H     51.558556    35.889828    50.203433
H     53.941670    36.300762    50.506545
H     55.427376    38.964138    47.579670
H     55.543527    39.216695    44.694970
P     53.796463    38.300515    43.150526
O     52.543634    37.503431    43.032282
O     53.957712    39.645623    42.495179
O     55.042108    37.399558    43.003375
P     55.741580    38.708603    39.411846
O     57.015493    38.938633    40.245195
O     55.928083    37.639567    38.394456
O     54.492659    38.679147    40.281285
P     55.426170    41.039477    37.435941
O     55.869069    42.367201    37.977117
O     56.054033    40.385232    36.230991
O     55.166482    40.075079    38.692940
O     53.876255    41.402622    37.003398
C     53.300000    40.708000    35.894000
H     53.389975    41.325709    34.999247
H     53.704923    39.713920    35.649943
C     58.778000    39.640000    45.275000
H     58.919449    40.468210    44.564028
H     59.211159    38.735805    44.786548
C     57.318520    39.404208    45.542439
O     56.528679    39.563027    44.504857
O     56.819205    39.150468    46.637039
C     49.367000    33.471000    42.644000
H     50.196490    32.848895    43.002863
H     49.547533    33.654468    41.577843
C     49.261332    34.804785    43.385745
H     48.490014    35.445033    42.918006
H     48.930499    34.668334    44.433814
C     50.616926    35.502957    43.370478
H     50.842504    35.931662    42.375095
H     50.584221    36.378504    44.059987
C     51.725387    34.539896    43.803546
H     51.367202    33.841407    44.593139
H     52.097114    33.940359    42.937359
N     52.859504    35.352670    44.341857
H     52.508617    36.077694    45.009727
H     53.546631    34.768800    44.864421
H     53.335621    35.860637    43.550235
C     50.919000    37.490000    39.432000
H     51.636763    37.128307    40.204716
O     51.638100    37.712097    38.224653
H     52.569025    38.003337    38.423601
C     49.865568    36.442152    39.098739
H     49.102189    36.848653    38.427686
H     50.333261    35.594130    38.581825
H     49.383157    36.064186    40.006481
Mg    55.968881    38.850630    41.964905
O     57.993779    38.669942    42.596699
H     58.460792    37.869184    42.269146
H     58.567161    39.412628    42.206202
H     52.276686    40.595866    36.252266
H     59.281679    39.844994    46.219662
H     48.460643    32.881339    42.781541
H     50.510479    38.453600    39.736444
78
frame=8 E_kcal=-1633.4690
C     52.053084    36.066657    48.262122
C     53.130797    37.040033    48.811134
C     53.793813    37.775855    47.623994
C     52.682728    38.470115    46.798081
C     53.205041    39.337712    45.640950
C     51.086613    36.844184    47.340944
O     50.224355    35.977338    46.685084
O     51.286797    35.516834    49.295388
O     54.103144    36.281691    49.469787
O     54.632439    38.766053    48.165126
O     51.853346    37.447991    46.282403
O     54.074908    38.578845    44.829595
H     52.510401    35.208191    47.731976
H     52.699762    37.767953    49.531949
H     54.386848    37.089839    46.989506
H     52.059710    39.129219    47.430794
H     52.348640    39.804952    45.114506
H     53.836501    40.149600    46.068982
H     50.497586    37.622853    47.872426
H     49.432405    36.594942    46.334089
H     51.552911    35.874127    50.217931
H     53.940265    36.290792    50.511223
H     55.414958    38.928706    47.565523
H     55.526526    39.308123    44.736662
P     53.769224    38.251451    43.213182
O     52.489243    37.506128    43.139466
O     53.962773    39.581957    42.513021
O     54.974444    37.299711    43.041269
P     55.364264    38.654720    39.322583
O     56.492898    39.066182    40.299111
O     55.945659    37.636912    38.400472
O     53.943322    38.404062    39.792588
P     55.386186    41.066891    37.437702
O     55.890553    42.329584    38.064637
O     56.067799    40.410970    36.264571
O     54.871411    40.019796    38.545226
O     53.892948    41.522546    36.909356
C     53.300000    40.708000    35.894000
H     53.371139    41.254888    34.949531
H     53.717191    39.701600    35.725160
C     58.778000    39.640000    45.275000
H     58.912871    40.470391    44.564422
H     59.214810    38.737917    44.788475
C     57.320163    39.398839    45.553482
O     56.514946    39.631025    44.537539
O     56.825904    39.089399    46.634738
C     49.367000    33.471000    42.644000
H     50.197970    32.833422    42.969492
H     49.525055    33.682571    41.578986
C     49.288245    34.786763    43.422754
H     48.519507    35.447883    42.979606
H     48.966383    34.628709    44.469809
C     50.649008    35.477392    43.413970
H     50.861076    35.939788    42.429787
H     50.631028    36.329559    44.136219
C     51.754738    34.490072    43.793291
H     51.424914    33.822102    44.621300
H     52.047797    33.860816    42.918346
N     52.954668    35.266611    44.239829
H     52.661083    36.057443    44.865464
H     53.612894    34.680644    44.797374
H     53.445685    35.676458    43.414610
C     50.919000    37.490000    39.432000
H     51.543573    37.071951    40.253428
O     51.763629    37.760628    38.328115
H     52.693788    38.024442    38.677684
C     49.870872    36.487724    38.956775
H     49.119056    36.963137    38.320994
H     50.357346    35.704552    38.361303
H     49.371720    36.013817    39.806546
Mg    55.856692    38.820391    42.071538
O     57.895006    38.738013    42.576853
H     58.366721    37.926442    42.299069
H     58.460571    39.471402    42.170996
H     52.276686    40.595866    36.252266
H     59.281679    39.844994    46.219662
H     48.460643    32.881339    42.781541
H     50.510479    38.453600    39.736444
